LAMMPS (29 Aug 2024)
OMP_NUM_THREADS environment is not set. Defaulting to 1 thread. (src/comm.cpp:98)
  using 1 OpenMP thread(s) per MPI task
# LAMMPS input script for system build with input of substrate, graphene sheet and AFM tip

clear
OMP_NUM_THREADS environment is not set. Defaulting to 1 thread. (src/comm.cpp:98)
  using 1 OpenMP thread(s) per MPI task

units           metal
atom_style      atomic
neighbor        0.3 bin
neigh_modify    every 1 delay 0 check yes #every 5

boundary   	    p p f
region box block 0.0 100.112067213033 0.0 100.389002921108 -5 100
create_box      18 box
Created orthogonal box = (0 0 -5) to (100.11207 100.389 100)
  2 by 2 by 2 MPI processor grid

#----------------- Read data files -----------------------

read_data       scripts/afm/h-CrO2/size_100x_100y/sub_aSi/tip_Si_r25/K300/system_build/sub.lmp add append group sub
Reading data file ...
  orthogonal box = (0 0 -5) to (100.11207 100.389 100)
  2 by 2 by 2 MPI processor grid
  reading atoms ...
WARNING: Non-zero imageflag(s) in z direction for non-periodic boundary reset to zero (src/read_data.cpp:1548)
  5001 atoms
  reading velocities ...
  5001 velocities
  read_data CPU = 0.017 seconds
read_data       scripts/afm/h-CrO2/size_100x_100y/sub_aSi/tip_Si_r25/K300/system_build/tip.lmp add append shift 50.0560336065165 50.194501460554 55.0  group tip offset 3 0 0 0 0
Reading data file ...
  orthogonal box = (0 0 -5) to (100.11207 100.389 100)
  2 by 2 by 2 MPI processor grid
  reading atoms ...
  505 atoms
  reading velocities ...
  505 velocities
  read_data CPU = 0.002 seconds
read_data       scripts/afm/h-CrO2/size_100x_100y/sub_aSi/tip_Si_r25/K300/system_build/h-CrO2_1.lmp add append shift 0.0 0.0 14.5 group 2D offset 6 0 0 0 0
Reading data file ...
  orthogonal box = (0 0 -5) to (100.11207 100.389 100)
  2 by 2 by 2 MPI processor grid
  reading atoms ...
  5016 atoms
  read_data CPU = 0.007 seconds

# Apply potentials

include        scripts/afm/h-CrO2/size_100x_100y/sub_aSi/tip_Si_r25/K300/l_1/lammps/system.in.settings
mass 1*3 28.085 #Si sub
mass 4*6 28.085 #Si tip
mass 7*10 51.9961 #Cr 2D
mass 11*18 15.999 #O 2D
group sub_all type 1 2 3
5001 atoms in group sub_all
group sub_fix type 2
999 atoms in group sub_fix
group sub_thermo type 3
1530 atoms in group sub_thermo
group tip_all type 4 5 6
505 atoms in group tip_all
group tip_fix type 5
261 atoms in group tip_fix
group tip_thermo type 6
68 atoms in group tip_thermo
group 2D_all type 7 8 9 10 11 12 13 14 15 16 17 18
5016 atoms in group 2D_all
group layer_1 type 7 8 9 10 11 12 13 14 15 16 17 18
5016 atoms in group layer_1
group mobile union tip_thermo sub_thermo
1598 atoms in group mobile
pair_style hybrid sw sw sw  lj/cut 8.0
pair_coeff * * sw 1 scripts/afm/h-CrO2/size_100x_100y/sub_aSi/tip_Si_r25/K300/potentials/Si.sw Si  Si  Si  NULL  NULL  NULL  NULL  NULL  NULL  NULL  NULL  NULL  NULL  NULL  NULL  NULL  NULL  NULL # interlayer Sub
Reading sw potential file scripts/afm/h-CrO2/size_100x_100y/sub_aSi/tip_Si_r25/K300/potentials/Si.sw with DATE: 2007-06-11
pair_coeff * * sw 2 scripts/afm/h-CrO2/size_100x_100y/sub_aSi/tip_Si_r25/K300/potentials/Si.sw NULL  NULL  NULL  Si  Si  Si  NULL  NULL  NULL  NULL  NULL  NULL  NULL  NULL  NULL  NULL  NULL  NULL # interlayer Tip
Reading sw potential file scripts/afm/h-CrO2/size_100x_100y/sub_aSi/tip_Si_r25/K300/potentials/Si.sw with DATE: 2007-06-11
pair_coeff * * sw 3 scripts/afm/h-CrO2/size_100x_100y/sub_aSi/tip_Si_r25/K300/potentials/h-CrO2.sw NULL  NULL  NULL  NULL  NULL  NULL  Cr1  Cr2  Cr3  Cr4  O1  O2  O3  O4  O5  O6  O7  O8 # interlayer '2D' Layer 1
pair_coeff 1*3 7*10 lj/cut 0.0033673013365522844 3.659
pair_coeff 4*6 7*10 lj/cut 0.0033673013365522844 3.659
pair_coeff 1*3 11*18 lj/cut 0.006734602673104569 3.8975
pair_coeff 4*6 11*18 lj/cut 0.006734602673104569 3.8975
pair_coeff 1*3 4*6  lj/cut 0.0174320868 4.295

#----------------- Create visualisation files ------------

dump            sys all atom 1000 ./scripts/afm/h-CrO2/size_100x_100y/sub_aSi/tip_Si_r25/K300/visuals/system_1.lammpstrj

#----------------- Minimize the system -------------------

min_style       cg
minimize        1.0e-4 1.0e-8 100 1000

CITE-CITE-CITE-CITE-CITE-CITE-CITE-CITE-CITE-CITE-CITE-CITE-CITE

Your simulation uses code contributions which should be cited:

- Type Label Framework: https://doi.org/10.1021/acs.jpcb.3c08419

@Article{Gissinger24,
 author = {Jacob R. Gissinger, Ilia Nikiforov, Yaser Afshar, Brendon Waters, Moon-ki Choi, Daniel S. Karls, Alexander Stukowski, Wonpil Im, Hendrik Heinz, Axel Kohlmeyer, and Ellad B. Tadmor},
 title = {Type Label Framework for Bonded Force Fields in LAMMPS},
 journal = {J. Phys. Chem. B},
 year =    2024,
 volume =  128,
 number =  13,
 pages =   {3282â€“-3297}
}

CITE-CITE-CITE-CITE-CITE-CITE-CITE-CITE-CITE-CITE-CITE-CITE-CITE

Neighbor list info ...
  update: every = 1 steps, delay = 0 steps, check = yes
  max neighbors/atom: 2000, page size: 100000
  master list distance cutoff = 8.3
  ghost atom cutoff = 8.3
  binsize = 4.15, bins = 25 25 26
  6 neighbor lists, perpetual/occasional/extra = 6 0 0
  (1) pair sw, perpetual, skip from (6)
      attributes: full, newton on, cut 4.07118
      pair build: skip
      stencil: none
      bin: none
  (2) pair sw, perpetual, skip from (6)
      attributes: full, newton on, cut 4.07118
      pair build: skip
      stencil: none
      bin: none
  (3) pair sw, perpetual, skip trim from (6)
      attributes: full, newton on, cut 2.836404
      pair build: skip/trim
      stencil: none
      bin: none
  (4) pair lj/cut, perpetual, skip from (5)
      attributes: half, newton on
      pair build: skip
      stencil: none
      bin: none
  (5) neighbor class addition, perpetual
      attributes: half, newton on
      pair build: half/bin/atomonly/newton
      stencil: half/bin/3d
      bin: standard
  (6) neighbor class addition, perpetual
      attributes: full, newton on, cut 4.07118
      pair build: full/bin/atomonly
      stencil: full/bin/3d
      bin: standard
Per MPI rank memory allocation (min/avg/max) = 7.553 | 7.606 | 7.659 Mbytes
   Step          Temp          E_pair         E_mol          TotEng         Press     
         0   144.61637     -25715.548      0             -25518.878     -3069.1222    
        49   144.61637     -28125.92       0             -27929.25      -3907.2686    
Loop time of 0.169722 on 8 procs for 49 steps with 10522 atoms

99.5% CPU use with 8 MPI tasks x 1 OpenMP threads

Minimization stats:
  Stopping criterion = energy tolerance
  Energy initial, next-to-last, final = 
     -25715.5481505891  -28124.3176654248  -28125.9204471841
  Force two-norm initial, final = 4536.0895 12.29255
  Force max component initial, final = 2155.6681 1.7555105
  Final line search alpha, max atom move = 0.056879757 0.099853012
  Iterations, force evaluations = 49 50

MPI task timing breakdown:
Section |  min time  |  avg time  |  max time  |%varavg| %total
---------------------------------------------------------------
Pair    | 0.0016643  | 0.049602   | 0.099817   |  21.5 | 29.23
Neigh   | 0.0027506  | 0.030645   | 0.059041   |  15.8 | 18.06
Comm    | 0.0025385  | 0.0056728  | 0.012146   |   4.5 |  3.34
Output  | 0          | 0          | 0          |   0.0 |  0.00
Modify  | 0          | 0          | 0          |   0.0 |  0.00
Other   |            | 0.0838     |            |       | 49.38

Nlocal:        1315.25 ave        2516 max         125 min
Histogram: 4 0 0 0 0 0 0 0 0 4
Nghost:        1058.12 ave        1952 max         180 min
Histogram: 4 0 0 0 0 0 0 0 0 4
Neighs:              0 ave           0 max           0 min
Histogram: 8 0 0 0 0 0 0 0 0 0

Total # of neighbors = 0
Ave neighs/atom = 0
Neighbor list builds = 24
Dangerous builds = 0

timestep        0.001
thermo          100

group           fixset union sub_fix tip_fix
1260 atoms in group fixset
group           system subtract all fixset
9262 atoms in group system

velocity        system create 300 492847948

compute         temp_tip tip_thermo temp/partial 0 1 0
fix             lang_tip tip_thermo langevin 300 300 $(100.0*dt) 699483 zero yes
fix             lang_tip tip_thermo langevin 300 300 0.10000000000000000555 699483 zero yes
fix_modify      lang_tip temp temp_tip

compute         temp_sub sub_thermo temp/partial 0 1 0
fix             lang_sub sub_thermo langevin 300 300 $(100.0*dt) 2847563 zero yes
fix             lang_sub sub_thermo langevin 300 300 0.10000000000000000555 2847563 zero yes
fix_modify      lang_sub temp temp_sub

fix             nve_all all nve

fix             sub_fix sub_fix setforce 0.0 0.0 0.0
velocity        sub_fix set 0.0 0.0 0.0

fix             tip_f tip_fix rigid/nve single force * off off off torque * off off off
  1 rigid bodies with 261 atoms

run             10000
WARNING: One or more atoms are time integrated more than once (src/modify.cpp:296)
Per MPI rank memory allocation (min/avg/max) = 8.774 | 8.828 | 8.881 Mbytes
   Step          Temp          E_pair         E_mol          TotEng         Press     
        49   270.7367      -28125.92       0             -27766.797     -3734.4487    
       100   137.28051     -27940.399      0             -27758.301     -3534.0153    
       200   166.97614     -27969.425      0             -27747.937     -3483.7603    
       300   180.2985      -27979.917      0             -27740.756     -3614.4898    
       400   189.44705     -27983.394      0             -27732.098     -3926.0085    
       500   197.781       -27991.609      0             -27729.258     -3718.7179    
       600   201.29865     -27993.889      0             -27726.873     -4195.2985    
       700   207.43408     -27999.965      0             -27724.811     -3532.0791    
       800   208.252       -28001.288      0             -27725.049     -3505.613     
       900   212.11463     -28007.86       0             -27726.497     -3848.2605    
      1000   215.09358     -28013.308      0             -27727.993     -4766.4046    
      1100   214.40797     -28015.448      0             -27731.043     -4288.9948    
      1200   212.69801     -28014.743      0             -27732.606     -4129.2033    
      1300   215.96176     -28020.426      0             -27733.96      -4161.4386    
      1400   212.91192     -28020.605      0             -27738.184     -3126.3871    
      1500   214.09739     -28020.904      0             -27736.911     -3786.6959    
      1600   213.95511     -28023.141      0             -27739.337     -3685.108     
      1700   214.77607     -28026.698      0             -27741.805     -3475.3822    
      1800   213.47629     -28027.335      0             -27744.166     -3789.933     
      1900   214.70354     -28030.363      0             -27745.566     -3519.7439    
      2000   218.05692     -28037.551      0             -27748.305     -3605.2504    
      2100   216.2403      -28041.42       0             -27754.585     -4173.717     
      2200   216.57067     -28042.583      0             -27755.309     -3226.0992    
      2300   217.12204     -28046.703      0             -27758.697     -4346.7266    
      2400   218.5789      -28052.846      0             -27762.908     -3800.8218    
      2500   217.71216     -28054.327      0             -27765.539     -3537.7403    
      2600   214.56971     -28054.292      0             -27769.672     -4041.7487    
      2700   217.56125     -28060.796      0             -27772.208     -3590.5441    
      2800   216.93319     -28061.367      0             -27773.612     -3360.316     
      2900   215.08089     -28061.506      0             -27776.208     -3369.5092    
      3000   213.14267     -28062.882      0             -27780.155     -4515.2176    
      3100   211.73891     -28063.599      0             -27782.734     -3907.0997    
      3200   212.08602     -28065.16       0             -27783.835     -3908.9712    
      3300   213.2901      -28068.933      0             -27786.01      -3967.6061    
      3400   210.39436     -28067.087      0             -27788.006     -3881.6097    
      3500   213.46306     -28074.894      0             -27791.742     -4065.5796    
      3600   208.56164     -28070.978      0             -27794.328     -3485.257     
      3700   208.11499     -28071.596      0             -27795.539     -3767.6377    
      3800   208.90098     -28076.36       0             -27799.259     -3361.8852    
      3900   205.74871     -28072.548      0             -27799.629     -3633.2034    
      4000   208.56285     -28079.862      0             -27803.21      -4134.6916    
      4100   205.10767     -28077.686      0             -27805.618     -3926.738     
      4200   207.19266     -28082.39       0             -27807.556     -3679.5441    
      4300   204.91525     -28082.077      0             -27810.264     -3888.3497    
      4400   208.00814     -28085.658      0             -27809.742     -3988.2882    
      4500   208.54615     -28087.08       0             -27810.45      -3842.3414    
      4600   208.15011     -28087.993      0             -27811.889     -3629.2314    
      4700   208.72097     -28090.149      0             -27813.287     -3802.0713    
      4800   206.79186     -28088.497      0             -27814.195     -4364.3321    
      4900   205.4247      -28088.843      0             -27816.354     -4562.1124    
      5000   206.26907     -28092.846      0             -27819.236     -3670.6561    
      5100   207.20108     -28093.131      0             -27818.286     -3568.2504    
      5200   205.75303     -28091.669      0             -27818.744     -3804.3828    
      5300   204.64817     -28091.216      0             -27819.757     -3383.8983    
      5400   203.16383     -28089.167      0             -27819.677     -3803.1189    
      5500   202.68748     -28089.729      0             -27820.871     -3808.3179    
      5600   204.68653     -28093.089      0             -27821.579     -3870.2318    
      5700   201.07711     -28090.895      0             -27824.173     -3752.9195    
      5800   203.44667     -28094.501      0             -27824.636     -3256.3454    
      5900   202.49602     -28092.145      0             -27823.541     -3697.7033    
      6000   203.32838     -28093.056      0             -27823.348     -4550.1396    
      6100   204.36749     -28094.794      0             -27823.707     -3910.1855    
      6200   202.68005     -28091.643      0             -27822.794     -3608.5804    
      6300   202.09176     -28093.578      0             -27825.51      -3640.268     
      6400   201.2743      -28092.459      0             -27825.476     -3151.5656    
      6500   204.74095     -28099.187      0             -27827.605     -4098.4636    
      6600   205.44535     -28101.309      0             -27828.792     -3539.4538    
      6700   202.15176     -28097.93       0             -27829.782     -3418.5358    
      6800   205.07887     -28102.571      0             -27830.54      -3562.4434    
      6900   202.58209     -28099.109      0             -27830.39      -3819.4827    
      7000   200.99519     -28097.78       0             -27831.166     -4306.3531    
      7100   200.24215     -28098.766      0             -27833.152     -3446.4182    
      7200   200.24926     -28098.713      0             -27833.089     -2871.8259    
      7300   200.09224     -28099.099      0             -27833.683     -3822.3609    
      7400   199.89576     -28096.583      0             -27831.427     -4070.102     
      7500   200.95621     -28101.198      0             -27834.636     -3738.2001    
      7600   199.85342     -28101.666      0             -27836.567     -3482.918     
      7700   202.34829     -28104.124      0             -27835.716     -3429.4838    
      7800   200.90687     -28103.265      0             -27836.769     -4095.6236    
      7900   198.63108     -28102.268      0             -27838.791     -4154.1272    
      8000   201.02793     -28105.864      0             -27839.207     -4073.67      
      8100   198.74831     -28102.8        0             -27839.167     -3415.0495    
      8200   201.18346     -28108.166      0             -27841.303     -3583.6141    
      8300   198.81126     -28105.667      0             -27841.951     -4101.8519    
      8400   202.00846     -28110.191      0             -27842.234     -4310.1899    
      8500   201.29221     -28108.92       0             -27841.912     -3729.9591    
      8600   198.2659      -28105.772      0             -27842.779     -4174.4331    
      8700   200.75436     -28106.637      0             -27840.343     -3998.2167    
      8800   201.82426     -28107.595      0             -27839.882     -3888.1546    
      8900   201.40658     -28106.714      0             -27839.555     -3979.4601    
      9000   201.90298     -28111.048      0             -27843.23      -3689.4093    
      9100   200.98656     -28111.779      0             -27845.177     -3891.5184    
      9200   201.12019     -28110.931      0             -27844.152     -4092.0568    
      9300   201.41133     -28111.602      0             -27844.437     -3941.4172    
      9400   199.50799     -28108.78       0             -27844.14      -3634.9598    
      9500   202.28057     -28112.232      0             -27843.914     -4139.9982    
      9600   202.26544     -28113.617      0             -27845.318     -3367.6268    
      9700   200.88761     -28110.825      0             -27844.355     -4072.711     
      9800   200.16642     -28109.313      0             -27843.798     -2992.6123    
      9900   200.74395     -28111.935      0             -27845.655     -3886.0644    
     10000   198.90462     -28108.907      0             -27845.066     -3607.7239    
     10049   201.03377     -28111.522      0             -27844.857     -3478.741     
Loop time of 24.0885 on 8 procs for 10000 steps with 10522 atoms

Performance: 35.868 ns/day, 0.669 hours/ns, 415.136 timesteps/s, 4.368 Matom-step/s
99.4% CPU use with 8 MPI tasks x 1 OpenMP threads

MPI task timing breakdown:
Section |  min time  |  avg time  |  max time  |%varavg| %total
---------------------------------------------------------------
Pair    | 0.58049    | 9.7411     | 19.198     | 292.5 | 40.44
Neigh   | 0.21932    | 1.4905     | 2.7779     | 103.8 |  6.19
Comm    | 1.2407     | 6.9032     | 12.263     | 202.7 | 28.66
Output  | 0.017956   | 0.019901   | 0.022752   |   1.1 |  0.08
Modify  | 0.71454    | 5.7792     | 10.839     | 210.4 | 23.99
Other   |            | 0.1546     |            |       |  0.64

Nlocal:        1315.25 ave        2515 max         125 min
Histogram: 4 0 0 0 0 0 0 0 0 4
Nghost:         1084.5 ave        1996 max         179 min
Histogram: 4 0 0 0 0 0 0 0 0 4
Neighs:              0 ave           0 max           0 min
Histogram: 8 0 0 0 0 0 0 0 0 0

Total # of neighbors = 0
Ave neighs/atom = 0
Neighbor list builds = 1034
Dangerous builds = 0

unfix           tip_f

##########################################################
#--------------------Tip Indentation---------------------#
##########################################################
#----------------- Displace tip closer -------------------

displace_atoms  tip_all move 0.0 0.0 -20.0 units box
Displacing atoms ...

#----------------- Apply constraints ---------------------

#Fix the bottom layer of the base and the edges of the graphene

fix             tip_f tip_fix rigid/nve single force * off off on torque * off off off
  1 rigid bodies with 261 atoms

#----------------- Set up initial parameters -------------

                variable find equal 5
variable        num_floads equal 500
variable        r equal 0.0
variable        f equal 0.0
variable        fincr equal ${find}/(${num_floads})
variable        fincr equal 5/(${num_floads})
variable        fincr equal 5/(500)
thermo_modify   lost ignore flush yes

#----------------- Apply pressure to the tip -------------

variable i loop ${num_floads}
variable i loop 500
label loop_load

variable f equal ${f}+${fincr}
variable f equal 0+${fincr}
variable f equal 0+0.01

# Set force variable

variable Fatom equal -v_f/(count(tip_fix)*1.602176565)
fix forcetip tip_fix aveforce 0.0 0.0 ${Fatom}
fix forcetip tip_fix aveforce 0.0 0.0 -2.391382890138e-05
run 100
WARNING: One or more atoms are time integrated more than once (src/modify.cpp:296)
Per MPI rank memory allocation (min/avg/max) = 8.784 | 8.851 | 8.921 Mbytes
   Step          Temp          E_pair         E_mol          TotEng         Press     
     10049   201.03377     -28111.522      0             -27844.857     -3766.0822    
     10100   199.30719     -28111.691      0             -27847.316     -3939.8899    
     10149   200.88462     -28113.461      0             -27846.994     -3655.3762    
Loop time of 0.243794 on 8 procs for 100 steps with 10522 atoms

Performance: 35.440 ns/day, 0.677 hours/ns, 410.183 timesteps/s, 4.316 Matom-step/s
99.0% CPU use with 8 MPI tasks x 1 OpenMP threads

MPI task timing breakdown:
Section |  min time  |  avg time  |  max time  |%varavg| %total
---------------------------------------------------------------
Pair    | 0.00011379 | 0.097584   | 0.19913    |  31.2 | 40.03
Neigh   | 0.00089866 | 0.011726   | 0.022873   |  10.0 |  4.81
Comm    | 0.012081   | 0.11878    | 0.22541    |  29.7 | 48.72
Output  | 7.2498e-05 | 8.7129e-05 | 0.00016643 |   0.0 |  0.04
Modify  | 0.0080585  | 0.013615   | 0.023029   |   5.1 |  5.58
Other   |            | 0.002005   |            |       |  0.82

Nlocal:        1315.25 ave        2639 max           0 min
Histogram: 4 0 0 0 0 0 0 0 0 4
Nghost:        1209.88 ave        2174 max         251 min
Histogram: 4 0 0 0 0 0 0 0 0 4
Neighs:              0 ave           0 max           0 min
Histogram: 8 0 0 0 0 0 0 0 0 0

Total # of neighbors = 0
Ave neighs/atom = 0
Neighbor list builds = 8
Dangerous builds = 0

unfix forcetip

next i
jump SELF loop_load

variable f equal ${f}+${fincr}
variable f equal 0.01+${fincr}
variable f equal 0.01+0.01

# Set force variable

variable Fatom equal -v_f/(count(tip_fix)*1.602176565)
fix forcetip tip_fix aveforce 0.0 0.0 ${Fatom}
fix forcetip tip_fix aveforce 0.0 0.0 -4.782765780276e-05
run 100
WARNING: One or more atoms are time integrated more than once (src/modify.cpp:296)
Per MPI rank memory allocation (min/avg/max) = 8.784 | 8.851 | 8.921 Mbytes
   Step          Temp          E_pair         E_mol          TotEng         Press     
     10149   200.88462     -28113.461      0             -27846.994     -3682.3102    
     10200   201.13637     -28116.03       0             -27849.229     -3653.6921    
     10249   198.48501     -28111.939      0             -27848.655     -4201.2061    
Loop time of 0.248066 on 8 procs for 100 steps with 10522 atoms

Performance: 34.829 ns/day, 0.689 hours/ns, 403.119 timesteps/s, 4.242 Matom-step/s
99.2% CPU use with 8 MPI tasks x 1 OpenMP threads

MPI task timing breakdown:
Section |  min time  |  avg time  |  max time  |%varavg| %total
---------------------------------------------------------------
Pair    | 0.00013654 | 0.098867   | 0.19987    |  31.4 | 39.86
Neigh   | 0.00066451 | 0.012621   | 0.024671   |  10.5 |  5.09
Comm    | 0.014095   | 0.12084    | 0.22748    |  30.1 | 48.71
Output  | 8.568e-05  | 0.00010347 | 0.00020146 |   0.0 |  0.04
Modify  | 0.0081575  | 0.013713   | 0.02347    |   5.0 |  5.53
Other   |            | 0.001919   |            |       |  0.77

Nlocal:        1315.25 ave        2643 max           0 min
Histogram: 4 0 0 0 0 0 0 0 0 4
Nghost:        1206.88 ave        2174 max         251 min
Histogram: 4 0 0 0 0 0 0 0 0 4
Neighs:              0 ave           0 max           0 min
Histogram: 8 0 0 0 0 0 0 0 0 0

Total # of neighbors = 0
Ave neighs/atom = 0
Neighbor list builds = 8
Dangerous builds = 0

unfix forcetip

next i
jump SELF loop_load

variable f equal ${f}+${fincr}
variable f equal 0.02+${fincr}
variable f equal 0.02+0.01

# Set force variable

variable Fatom equal -v_f/(count(tip_fix)*1.602176565)
fix forcetip tip_fix aveforce 0.0 0.0 ${Fatom}
fix forcetip tip_fix aveforce 0.0 0.0 -7.174148670414e-05
run 100
WARNING: One or more atoms are time integrated more than once (src/modify.cpp:296)
Per MPI rank memory allocation (min/avg/max) = 8.784 | 8.851 | 8.921 Mbytes
   Step          Temp          E_pair         E_mol          TotEng         Press     
     10249   198.48501     -28111.939      0             -27848.655     -4113.4974    
     10300   201.12247     -28114.919      0             -27848.136     -3874.8022    
     10349   199.78063     -28114.49       0             -27849.488     -3675.4446    
Loop time of 0.243792 on 8 procs for 100 steps with 10522 atoms

Performance: 35.440 ns/day, 0.677 hours/ns, 410.185 timesteps/s, 4.316 Matom-step/s
99.1% CPU use with 8 MPI tasks x 1 OpenMP threads

MPI task timing breakdown:
Section |  min time  |  avg time  |  max time  |%varavg| %total
---------------------------------------------------------------
Pair    | 0.00012429 | 0.097892   | 0.20146    |  31.3 | 40.15
Neigh   | 0.0010198  | 0.012056   | 0.02335    |   9.9 |  4.95
Comm    | 0.0093349  | 0.11858    | 0.22792    |  30.0 | 48.64
Output  | 7.5793e-05 | 9.5175e-05 | 0.00019226 |   0.0 |  0.04
Modify  | 0.0080841  | 0.013277   | 0.025268   |   5.3 |  5.45
Other   |            | 0.001892   |            |       |  0.78

Nlocal:        1315.25 ave        2644 max           0 min
Histogram: 4 0 0 0 0 0 0 0 0 4
Nghost:        1208.62 ave        2176 max         251 min
Histogram: 4 0 0 0 0 0 0 0 0 4
Neighs:              0 ave           0 max           0 min
Histogram: 8 0 0 0 0 0 0 0 0 0

Total # of neighbors = 0
Ave neighs/atom = 0
Neighbor list builds = 8
Dangerous builds = 0

unfix forcetip

next i
jump SELF loop_load

variable f equal ${f}+${fincr}
variable f equal 0.03+${fincr}
variable f equal 0.03+0.01

# Set force variable

variable Fatom equal -v_f/(count(tip_fix)*1.602176565)
fix forcetip tip_fix aveforce 0.0 0.0 ${Fatom}
fix forcetip tip_fix aveforce 0.0 0.0 -9.565531560552e-05
run 100
WARNING: One or more atoms are time integrated more than once (src/modify.cpp:296)
Per MPI rank memory allocation (min/avg/max) = 8.784 | 8.851 | 8.921 Mbytes
   Step          Temp          E_pair         E_mol          TotEng         Press     
     10349   199.78063     -28114.49       0             -27849.488     -3666.5961    
     10400   197.30534     -28111.573      0             -27849.854     -3642.0389    
     10449   197.71331     -28112.923      0             -27850.663     -3848.5525    
Loop time of 0.254236 on 8 procs for 100 steps with 10522 atoms

Performance: 33.984 ns/day, 0.706 hours/ns, 393.335 timesteps/s, 4.139 Matom-step/s
99.5% CPU use with 8 MPI tasks x 1 OpenMP threads

MPI task timing breakdown:
Section |  min time  |  avg time  |  max time  |%varavg| %total
---------------------------------------------------------------
Pair    | 0.00014411 | 0.10025    | 0.20462    |  31.6 | 39.43
Neigh   | 0.00094458 | 0.011798   | 0.02313    |  10.0 |  4.64
Comm    | 0.016802   | 0.1238     | 0.23089    |  29.3 | 48.69
Output  | 7.8859e-05 | 9.4484e-05 | 0.00018089 |   0.0 |  0.04
Modify  | 0.0084533  | 0.016223   | 0.033097   |   6.8 |  6.38
Other   |            | 0.002071   |            |       |  0.81

Nlocal:        1315.25 ave        2641 max           0 min
Histogram: 4 0 0 0 0 0 0 0 0 4
Nghost:        1210.62 ave        2180 max         251 min
Histogram: 4 0 0 0 0 0 0 0 0 4
Neighs:              0 ave           0 max           0 min
Histogram: 8 0 0 0 0 0 0 0 0 0

Total # of neighbors = 0
Ave neighs/atom = 0
Neighbor list builds = 8
Dangerous builds = 0

unfix forcetip

next i
jump SELF loop_load

variable f equal ${f}+${fincr}
variable f equal 0.04+${fincr}
variable f equal 0.04+0.01

# Set force variable

variable Fatom equal -v_f/(count(tip_fix)*1.602176565)
fix forcetip tip_fix aveforce 0.0 0.0 ${Fatom}
fix forcetip tip_fix aveforce 0.0 0.0 -0.0001195691445069
run 100
WARNING: One or more atoms are time integrated more than once (src/modify.cpp:296)
Per MPI rank memory allocation (min/avg/max) = 8.784 | 8.851 | 8.921 Mbytes
   Step          Temp          E_pair         E_mol          TotEng         Press     
     10449   197.71331     -28112.923      0             -27850.663     -3806.0538    
     10500   198.96834     -28115.621      0             -27851.696     -3613.5292    
     10549   197.10476     -28113.097      0             -27851.644     -3986.2466    
Loop time of 0.25315 on 8 procs for 100 steps with 10522 atoms

Performance: 34.130 ns/day, 0.703 hours/ns, 395.023 timesteps/s, 4.156 Matom-step/s
99.3% CPU use with 8 MPI tasks x 1 OpenMP threads

MPI task timing breakdown:
Section |  min time  |  avg time  |  max time  |%varavg| %total
---------------------------------------------------------------
Pair    | 0.00011453 | 0.10062    | 0.20492    |  31.7 | 39.75
Neigh   | 0.0010074  | 0.011975   | 0.023375   |   9.9 |  4.73
Comm    | 0.015329   | 0.12324    | 0.23114    |  29.6 | 48.68
Output  | 7.0313e-05 | 8.3779e-05 | 0.00015307 |   0.0 |  0.03
Modify  | 0.0081888  | 0.015294   | 0.027134   |   6.0 |  6.04
Other   |            | 0.001938   |            |       |  0.77

Nlocal:        1315.25 ave        2642 max           0 min
Histogram: 4 0 0 0 0 0 0 0 0 4
Nghost:        1208.88 ave        2177 max         251 min
Histogram: 4 0 0 0 0 0 0 0 0 4
Neighs:              0 ave           0 max           0 min
Histogram: 8 0 0 0 0 0 0 0 0 0

Total # of neighbors = 0
Ave neighs/atom = 0
Neighbor list builds = 8
Dangerous builds = 0

unfix forcetip

next i
jump SELF loop_load

variable f equal ${f}+${fincr}
variable f equal 0.05+${fincr}
variable f equal 0.05+0.01

# Set force variable

variable Fatom equal -v_f/(count(tip_fix)*1.602176565)
fix forcetip tip_fix aveforce 0.0 0.0 ${Fatom}
fix forcetip tip_fix aveforce 0.0 0.0 -0.00014348297340828
run 100
WARNING: One or more atoms are time integrated more than once (src/modify.cpp:296)
Per MPI rank memory allocation (min/avg/max) = 8.784 | 8.851 | 8.921 Mbytes
   Step          Temp          E_pair         E_mol          TotEng         Press     
     10549   197.10476     -28113.097      0             -27851.644     -3860.7309    
     10600   200.99209     -28117.831      0             -27851.221     -3928.1557    
     10649   197.87342     -28114.899      0             -27852.426     -3741.2201    
Loop time of 0.248939 on 8 procs for 100 steps with 10522 atoms

Performance: 34.707 ns/day, 0.691 hours/ns, 401.705 timesteps/s, 4.227 Matom-step/s
99.2% CPU use with 8 MPI tasks x 1 OpenMP threads

MPI task timing breakdown:
Section |  min time  |  avg time  |  max time  |%varavg| %total
---------------------------------------------------------------
Pair    | 0.00012762 | 0.099419   | 0.20715    |  31.5 | 39.94
Neigh   | 0.00064642 | 0.011456   | 0.022486   |  10.1 |  4.60
Comm    | 0.0094764  | 0.12119    | 0.23305    |  29.7 | 48.68
Output  | 7.2477e-05 | 8.5724e-05 | 0.00015903 |   0.0 |  0.03
Modify  | 0.0085581  | 0.014969   | 0.028225   |   6.2 |  6.01
Other   |            | 0.001817   |            |       |  0.73

Nlocal:        1315.25 ave        2640 max           0 min
Histogram: 4 0 0 0 0 0 0 0 0 4
Nghost:        1208.88 ave        2176 max         252 min
Histogram: 4 0 0 0 0 0 0 0 0 4
Neighs:              0 ave           0 max           0 min
Histogram: 8 0 0 0 0 0 0 0 0 0

Total # of neighbors = 0
Ave neighs/atom = 0
Neighbor list builds = 8
Dangerous builds = 0

unfix forcetip

next i
jump SELF loop_load

variable f equal ${f}+${fincr}
variable f equal 0.06+${fincr}
variable f equal 0.06+0.01

# Set force variable

variable Fatom equal -v_f/(count(tip_fix)*1.602176565)
fix forcetip tip_fix aveforce 0.0 0.0 ${Fatom}
fix forcetip tip_fix aveforce 0.0 0.0 -0.00016739680230966
run 100
WARNING: One or more atoms are time integrated more than once (src/modify.cpp:296)
Per MPI rank memory allocation (min/avg/max) = 8.784 | 8.851 | 8.921 Mbytes
   Step          Temp          E_pair         E_mol          TotEng         Press     
     10649   197.87342     -28114.899      0             -27852.426     -3656.1658    
     10700   196.72551     -28113.737      0             -27852.787     -4037.7372    
     10749   198.79482     -28115.73       0             -27852.035     -3965.247     
Loop time of 0.242532 on 8 procs for 100 steps with 10522 atoms

Performance: 35.624 ns/day, 0.674 hours/ns, 412.316 timesteps/s, 4.338 Matom-step/s
99.5% CPU use with 8 MPI tasks x 1 OpenMP threads

MPI task timing breakdown:
Section |  min time  |  avg time  |  max time  |%varavg| %total
---------------------------------------------------------------
Pair    | 0.00010273 | 0.097627   | 0.19822    |  31.2 | 40.25
Neigh   | 0.00074153 | 0.011639   | 0.022948   |  10.0 |  4.80
Comm    | 0.012408   | 0.11813    | 0.22384    |  29.9 | 48.71
Output  | 7.0923e-05 | 8.4499e-05 | 0.00015557 |   0.0 |  0.03
Modify  | 0.0080151  | 0.013222   | 0.022705   |   4.8 |  5.45
Other   |            | 0.001827   |            |       |  0.75

Nlocal:        1315.25 ave        2644 max           0 min
Histogram: 4 0 0 0 0 0 0 0 0 4
Nghost:        1208.75 ave        2177 max         251 min
Histogram: 4 0 0 0 0 0 0 0 0 4
Neighs:              0 ave           0 max           0 min
Histogram: 8 0 0 0 0 0 0 0 0 0

Total # of neighbors = 0
Ave neighs/atom = 0
Neighbor list builds = 8
Dangerous builds = 0

unfix forcetip

next i
jump SELF loop_load

variable f equal ${f}+${fincr}
variable f equal 0.07+${fincr}
variable f equal 0.07+0.01

# Set force variable

variable Fatom equal -v_f/(count(tip_fix)*1.602176565)
fix forcetip tip_fix aveforce 0.0 0.0 ${Fatom}
fix forcetip tip_fix aveforce 0.0 0.0 -0.00019131063121104
run 100
WARNING: One or more atoms are time integrated more than once (src/modify.cpp:296)
Per MPI rank memory allocation (min/avg/max) = 8.784 | 8.851 | 8.921 Mbytes
   Step          Temp          E_pair         E_mol          TotEng         Press     
     10749   198.79482     -28115.73       0             -27852.035     -3921.8567    
     10800   199.50407     -28117.066      0             -27852.43      -3869.4676    
     10849   197.6727      -28114.964      0             -27852.758     -3528.3937    
Loop time of 0.248719 on 8 procs for 100 steps with 10522 atoms

Performance: 34.738 ns/day, 0.691 hours/ns, 402.060 timesteps/s, 4.230 Matom-step/s
99.2% CPU use with 8 MPI tasks x 1 OpenMP threads

MPI task timing breakdown:
Section |  min time  |  avg time  |  max time  |%varavg| %total
---------------------------------------------------------------
Pair    | 0.00012492 | 0.098882   | 0.20125    |  31.4 | 39.76
Neigh   | 0.00076173 | 0.011734   | 0.023343   |  10.0 |  4.72
Comm    | 0.013479   | 0.12092    | 0.22837    |  29.7 | 48.62
Output  | 7.0012e-05 | 8.2049e-05 | 0.00014342 |   0.0 |  0.03
Modify  | 0.0088945  | 0.015089   | 0.027764   |   5.6 |  6.07
Other   |            | 0.002011   |            |       |  0.81

Nlocal:        1315.25 ave        2645 max           0 min
Histogram: 4 0 0 0 0 0 0 0 0 4
Nghost:        1207.25 ave        2178 max         251 min
Histogram: 4 0 0 0 0 0 0 0 0 4
Neighs:              0 ave           0 max           0 min
Histogram: 8 0 0 0 0 0 0 0 0 0

Total # of neighbors = 0
Ave neighs/atom = 0
Neighbor list builds = 8
Dangerous builds = 0

unfix forcetip

next i
jump SELF loop_load

variable f equal ${f}+${fincr}
variable f equal 0.08+${fincr}
variable f equal 0.08+0.01

# Set force variable

variable Fatom equal -v_f/(count(tip_fix)*1.602176565)
fix forcetip tip_fix aveforce 0.0 0.0 ${Fatom}
fix forcetip tip_fix aveforce 0.0 0.0 -0.00021522446011242
run 100
WARNING: One or more atoms are time integrated more than once (src/modify.cpp:296)
Per MPI rank memory allocation (min/avg/max) = 8.784 | 8.851 | 8.921 Mbytes
   Step          Temp          E_pair         E_mol          TotEng         Press     
     10849   197.6727      -28114.964      0             -27852.758     -3551.0914    
     10900   197.44546     -28115.48       0             -27853.575     -3873.3449    
     10949   199.27843     -28118.911      0             -27854.575     -3690.5292    
Loop time of 0.252941 on 8 procs for 100 steps with 10522 atoms

Performance: 34.158 ns/day, 0.703 hours/ns, 395.349 timesteps/s, 4.160 Matom-step/s
99.6% CPU use with 8 MPI tasks x 1 OpenMP threads

MPI task timing breakdown:
Section |  min time  |  avg time  |  max time  |%varavg| %total
---------------------------------------------------------------
Pair    | 0.00013326 | 0.10117    | 0.2072     |  31.8 | 40.00
Neigh   | 0.00092521 | 0.012091   | 0.023866   |  10.1 |  4.78
Comm    | 0.011625   | 0.12313    | 0.23464    |  30.2 | 48.68
Output  | 0.00013804 | 0.00016463 | 0.00026795 |   0.0 |  0.07
Modify  | 0.0083543  | 0.014349   | 0.024006   |   5.5 |  5.67
Other   |            | 0.002038   |            |       |  0.81

Nlocal:        1315.25 ave        2642 max           0 min
Histogram: 4 0 0 0 0 0 0 0 0 4
Nghost:        1207.88 ave        2173 max         251 min
Histogram: 4 0 0 0 0 0 0 0 0 4
Neighs:              0 ave           0 max           0 min
Histogram: 8 0 0 0 0 0 0 0 0 0

Total # of neighbors = 0
Ave neighs/atom = 0
Neighbor list builds = 8
Dangerous builds = 0

unfix forcetip

next i
jump SELF loop_load

variable f equal ${f}+${fincr}
variable f equal 0.09+${fincr}
variable f equal 0.09+0.01

# Set force variable

variable Fatom equal -v_f/(count(tip_fix)*1.602176565)
fix forcetip tip_fix aveforce 0.0 0.0 ${Fatom}
fix forcetip tip_fix aveforce 0.0 0.0 -0.0002391382890138
run 100
WARNING: One or more atoms are time integrated more than once (src/modify.cpp:296)
Per MPI rank memory allocation (min/avg/max) = 8.784 | 8.851 | 8.921 Mbytes
   Step          Temp          E_pair         E_mol          TotEng         Press     
     10949   199.27843     -28118.911      0             -27854.575     -3634.7063    
     11000   196.37243     -28116.07       0             -27855.588     -3789.5156    
     11049   197.31058     -28117.168      0             -27855.441     -3834.7458    
Loop time of 0.246604 on 8 procs for 100 steps with 10522 atoms

Performance: 35.036 ns/day, 0.685 hours/ns, 405.508 timesteps/s, 4.267 Matom-step/s
99.6% CPU use with 8 MPI tasks x 1 OpenMP threads

MPI task timing breakdown:
Section |  min time  |  avg time  |  max time  |%varavg| %total
---------------------------------------------------------------
Pair    | 0.00013521 | 0.09923    | 0.20137    |  31.5 | 40.24
Neigh   | 0.0011143  | 0.012315   | 0.023819   |  10.0 |  4.99
Comm    | 0.0098952  | 0.11895    | 0.22812    |  30.8 | 48.24
Output  | 0.0019619  | 0.0021327  | 0.0023815  |   0.3 |  0.86
Modify  | 0.0081013  | 0.011874   | 0.020699   |   4.0 |  4.82
Other   |            | 0.002099   |            |       |  0.85

Nlocal:        1315.25 ave        2641 max           0 min
Histogram: 4 0 0 0 0 0 0 0 0 4
Nghost:        1208.38 ave        2173 max         251 min
Histogram: 4 0 0 0 0 0 0 0 0 4
Neighs:              0 ave           0 max           0 min
Histogram: 8 0 0 0 0 0 0 0 0 0

Total # of neighbors = 0
Ave neighs/atom = 0
Neighbor list builds = 8
Dangerous builds = 0

unfix forcetip

next i
jump SELF loop_load

variable f equal ${f}+${fincr}
variable f equal 0.1+${fincr}
variable f equal 0.1+0.01

# Set force variable

variable Fatom equal -v_f/(count(tip_fix)*1.602176565)
fix forcetip tip_fix aveforce 0.0 0.0 ${Fatom}
fix forcetip tip_fix aveforce 0.0 0.0 -0.00026305211791518
run 100
WARNING: One or more atoms are time integrated more than once (src/modify.cpp:296)
Per MPI rank memory allocation (min/avg/max) = 8.788 | 8.854 | 8.925 Mbytes
   Step          Temp          E_pair         E_mol          TotEng         Press     
     11049   197.31058     -28117.168      0             -27855.441     -3742.5827    
     11100   197.08813     -28117.91       0             -27856.479     -3870.4758    
     11149   197.5686      -28119.093      0             -27857.024     -3879.543     
Loop time of 0.255975 on 8 procs for 100 steps with 10522 atoms

Performance: 33.753 ns/day, 0.711 hours/ns, 390.664 timesteps/s, 4.111 Matom-step/s
99.4% CPU use with 8 MPI tasks x 1 OpenMP threads

MPI task timing breakdown:
Section |  min time  |  avg time  |  max time  |%varavg| %total
---------------------------------------------------------------
Pair    | 0.00013481 | 0.10195    | 0.20456    |  31.9 | 39.83
Neigh   | 0.00094152 | 0.012072   | 0.023515   |  10.1 |  4.72
Comm    | 0.018254   | 0.12462    | 0.23089    |  30.0 | 48.68
Output  | 7.4029e-05 | 8.5721e-05 | 0.00014181 |   0.0 |  0.03
Modify  | 0.0085987  | 0.015251   | 0.022261   |   5.4 |  5.96
Other   |            | 0.001996   |            |       |  0.78

Nlocal:        1315.25 ave        2645 max           0 min
Histogram: 4 0 0 0 0 0 0 0 0 4
Nghost:        1209.75 ave        2176 max         251 min
Histogram: 4 0 0 0 0 0 0 0 0 4
Neighs:              0 ave           0 max           0 min
Histogram: 8 0 0 0 0 0 0 0 0 0

Total # of neighbors = 0
Ave neighs/atom = 0
Neighbor list builds = 8
Dangerous builds = 0

unfix forcetip

next i
jump SELF loop_load

variable f equal ${f}+${fincr}
variable f equal 0.11+${fincr}
variable f equal 0.11+0.01

# Set force variable

variable Fatom equal -v_f/(count(tip_fix)*1.602176565)
fix forcetip tip_fix aveforce 0.0 0.0 ${Fatom}
fix forcetip tip_fix aveforce 0.0 0.0 -0.00028696594681656
run 100
WARNING: One or more atoms are time integrated more than once (src/modify.cpp:296)
Per MPI rank memory allocation (min/avg/max) = 8.788 | 8.854 | 8.925 Mbytes
   Step          Temp          E_pair         E_mol          TotEng         Press     
     11149   197.5686      -28119.093      0             -27857.024     -3845.5063    
     11200   197.93181     -28119.848      0             -27857.298     -4049.837     
     11249   199.44517     -28120.534      0             -27855.976     -3655.9788    
Loop time of 0.268493 on 8 procs for 100 steps with 10522 atoms

Performance: 32.180 ns/day, 0.746 hours/ns, 372.450 timesteps/s, 3.919 Matom-step/s
99.4% CPU use with 8 MPI tasks x 1 OpenMP threads

MPI task timing breakdown:
Section |  min time  |  avg time  |  max time  |%varavg| %total
---------------------------------------------------------------
Pair    | 0.00019505 | 0.10362    | 0.21694    |  32.2 | 38.59
Neigh   | 0.00074857 | 0.012321   | 0.024895   |  10.4 |  4.59
Comm    | 0.015232   | 0.13067    | 0.24614    |  29.0 | 48.67
Output  | 5.5023e-05 | 6.476e-05  | 0.00011146 |   0.0 |  0.02
Modify  | 0.0093065  | 0.019553   | 0.038762   |   8.1 |  7.28
Other   |            | 0.002258   |            |       |  0.84

Nlocal:        1315.25 ave        2641 max           0 min
Histogram: 4 0 0 0 0 0 0 0 0 4
Nghost:        1209.12 ave        2181 max         251 min
Histogram: 4 0 0 0 0 0 0 0 0 4
Neighs:              0 ave           0 max           0 min
Histogram: 8 0 0 0 0 0 0 0 0 0

Total # of neighbors = 0
Ave neighs/atom = 0
Neighbor list builds = 8
Dangerous builds = 0

unfix forcetip

next i
jump SELF loop_load

variable f equal ${f}+${fincr}
variable f equal 0.12+${fincr}
variable f equal 0.12+0.01

# Set force variable

variable Fatom equal -v_f/(count(tip_fix)*1.602176565)
fix forcetip tip_fix aveforce 0.0 0.0 ${Fatom}
fix forcetip tip_fix aveforce 0.0 0.0 -0.00031087977571794
run 100
WARNING: One or more atoms are time integrated more than once (src/modify.cpp:296)
Per MPI rank memory allocation (min/avg/max) = 8.788 | 8.854 | 8.925 Mbytes
   Step          Temp          E_pair         E_mol          TotEng         Press     
     11249   199.44517     -28120.534      0             -27855.976     -3605.4752    
     11300   199.15065     -28118.518      0             -27854.351     -3758.6725    
     11349   198.73899     -28118.811      0             -27855.191     -3651.3683    
Loop time of 0.258714 on 8 procs for 100 steps with 10522 atoms

Performance: 33.396 ns/day, 0.719 hours/ns, 386.528 timesteps/s, 4.067 Matom-step/s
99.3% CPU use with 8 MPI tasks x 1 OpenMP threads

MPI task timing breakdown:
Section |  min time  |  avg time  |  max time  |%varavg| %total
---------------------------------------------------------------
Pair    | 0.00017565 | 0.10176    | 0.20512    |  31.8 | 39.33
Neigh   | 0.0011115  | 0.012754   | 0.024942   |  10.2 |  4.93
Comm    | 0.018882   | 0.1258     | 0.23268    |  29.8 | 48.63
Output  | 5.835e-05  | 6.8598e-05 | 0.00011767 |   0.0 |  0.03
Modify  | 0.0089332  | 0.016096   | 0.025469   |   5.7 |  6.22
Other   |            | 0.002231   |            |       |  0.86

Nlocal:        1315.25 ave        2645 max           0 min
Histogram: 4 0 0 0 0 0 0 0 0 4
Nghost:        1208.62 ave        2181 max         251 min
Histogram: 4 0 0 0 0 0 0 0 0 4
Neighs:              0 ave           0 max           0 min
Histogram: 8 0 0 0 0 0 0 0 0 0

Total # of neighbors = 0
Ave neighs/atom = 0
Neighbor list builds = 8
Dangerous builds = 0

unfix forcetip

next i
jump SELF loop_load

variable f equal ${f}+${fincr}
variable f equal 0.13+${fincr}
variable f equal 0.13+0.01

# Set force variable

variable Fatom equal -v_f/(count(tip_fix)*1.602176565)
fix forcetip tip_fix aveforce 0.0 0.0 ${Fatom}
fix forcetip tip_fix aveforce 0.0 0.0 -0.00033479360461932
run 100
WARNING: One or more atoms are time integrated more than once (src/modify.cpp:296)
Per MPI rank memory allocation (min/avg/max) = 8.788 | 8.854 | 8.925 Mbytes
   Step          Temp          E_pair         E_mol          TotEng         Press     
     11349   198.73899     -28118.811      0             -27855.191     -3595.8714    
     11400   196.5321      -28115.648      0             -27854.954     -4043.4567    
     11449   197.79268     -28116.921      0             -27854.555     -3778.879     
Loop time of 0.258689 on 8 procs for 100 steps with 10522 atoms

Performance: 33.399 ns/day, 0.719 hours/ns, 386.565 timesteps/s, 4.067 Matom-step/s
99.2% CPU use with 8 MPI tasks x 1 OpenMP threads

MPI task timing breakdown:
Section |  min time  |  avg time  |  max time  |%varavg| %total
---------------------------------------------------------------
Pair    | 0.00016515 | 0.10195    | 0.21061    |  31.9 | 39.41
Neigh   | 0.0010174  | 0.012405   | 0.024494   |  10.1 |  4.80
Comm    | 0.014179   | 0.12597    | 0.23783    |  29.6 | 48.70
Output  | 5.7528e-05 | 6.8537e-05 | 0.00011948 |   0.0 |  0.03
Modify  | 0.008591   | 0.016222   | 0.030017   |   6.5 |  6.27
Other   |            | 0.002073   |            |       |  0.80

Nlocal:        1315.25 ave        2642 max           0 min
Histogram: 4 0 0 0 0 0 0 0 0 4
Nghost:           1208 ave        2183 max         251 min
Histogram: 4 0 0 0 0 0 0 0 0 4
Neighs:              0 ave           0 max           0 min
Histogram: 8 0 0 0 0 0 0 0 0 0

Total # of neighbors = 0
Ave neighs/atom = 0
Neighbor list builds = 8
Dangerous builds = 0

unfix forcetip

next i
jump SELF loop_load

variable f equal ${f}+${fincr}
variable f equal 0.14+${fincr}
variable f equal 0.14+0.01

# Set force variable

variable Fatom equal -v_f/(count(tip_fix)*1.602176565)
fix forcetip tip_fix aveforce 0.0 0.0 ${Fatom}
fix forcetip tip_fix aveforce 0.0 0.0 -0.0003587074335207
run 100
WARNING: One or more atoms are time integrated more than once (src/modify.cpp:296)
Per MPI rank memory allocation (min/avg/max) = 8.788 | 8.854 | 8.925 Mbytes
   Step          Temp          E_pair         E_mol          TotEng         Press     
     11449   197.79268     -28116.921      0             -27854.555     -3737.8348    
     11500   197.62597     -28117.875      0             -27855.731     -3849.0284    
     11549   198.97432     -28120.141      0             -27856.208     -3589.7556    
Loop time of 0.266488 on 8 procs for 100 steps with 10522 atoms

Performance: 32.422 ns/day, 0.740 hours/ns, 375.251 timesteps/s, 3.948 Matom-step/s
99.5% CPU use with 8 MPI tasks x 1 OpenMP threads

MPI task timing breakdown:
Section |  min time  |  avg time  |  max time  |%varavg| %total
---------------------------------------------------------------
Pair    | 0.00018793 | 0.10411    | 0.21076    |  32.2 | 39.07
Neigh   | 0.00079581 | 0.012157   | 0.024035   |  10.2 |  4.56
Comm    | 0.019788   | 0.12956    | 0.23921    |  29.6 | 48.62
Output  | 5.5054e-05 | 6.6097e-05 | 0.00011078 |   0.0 |  0.02
Modify  | 0.0096738  | 0.017965   | 0.031181   |   6.4 |  6.74
Other   |            | 0.002627   |            |       |  0.99

Nlocal:        1315.25 ave        2644 max           0 min
Histogram: 4 0 0 0 0 0 0 0 0 4
Nghost:        1209.25 ave        2180 max         251 min
Histogram: 4 0 0 0 0 0 0 0 0 4
Neighs:              0 ave           0 max           0 min
Histogram: 8 0 0 0 0 0 0 0 0 0

Total # of neighbors = 0
Ave neighs/atom = 0
Neighbor list builds = 8
Dangerous builds = 0

unfix forcetip

next i
jump SELF loop_load

variable f equal ${f}+${fincr}
variable f equal 0.15+${fincr}
variable f equal 0.15+0.01

# Set force variable

variable Fatom equal -v_f/(count(tip_fix)*1.602176565)
fix forcetip tip_fix aveforce 0.0 0.0 ${Fatom}
fix forcetip tip_fix aveforce 0.0 0.0 -0.00038262126242208
run 100
WARNING: One or more atoms are time integrated more than once (src/modify.cpp:296)
Per MPI rank memory allocation (min/avg/max) = 8.788 | 8.854 | 8.925 Mbytes
   Step          Temp          E_pair         E_mol          TotEng         Press     
     11549   198.97432     -28120.141      0             -27856.208     -3652.898     
     11600   197.94694     -28119.625      0             -27857.054     -3986.3027    
     11649   195.05171     -28116.484      0             -27857.755     -4112.3612    
Loop time of 0.25553 on 8 procs for 100 steps with 10522 atoms

Performance: 33.812 ns/day, 0.710 hours/ns, 391.343 timesteps/s, 4.118 Matom-step/s
99.4% CPU use with 8 MPI tasks x 1 OpenMP threads

MPI task timing breakdown:
Section |  min time  |  avg time  |  max time  |%varavg| %total
---------------------------------------------------------------
Pair    | 0.00011952 | 0.10138    | 0.20629    |  31.8 | 39.68
Neigh   | 0.00092636 | 0.012071   | 0.023366   |  10.0 |  4.72
Comm    | 0.014977   | 0.1241     | 0.23337    |  29.9 | 48.57
Output  | 0.000144   | 0.00018761 | 0.00038616 |   0.0 |  0.07
Modify  | 0.0089126  | 0.015508   | 0.02827    |   5.7 |  6.07
Other   |            | 0.002281   |            |       |  0.89

Nlocal:        1315.25 ave        2644 max           0 min
Histogram: 4 0 0 0 0 0 0 0 0 4
Nghost:        1208.88 ave        2178 max         251 min
Histogram: 4 0 0 0 0 0 0 0 0 4
Neighs:              0 ave           0 max           0 min
Histogram: 8 0 0 0 0 0 0 0 0 0

Total # of neighbors = 0
Ave neighs/atom = 0
Neighbor list builds = 8
Dangerous builds = 0

unfix forcetip

next i
jump SELF loop_load

variable f equal ${f}+${fincr}
variable f equal 0.16+${fincr}
variable f equal 0.16+0.01

# Set force variable

variable Fatom equal -v_f/(count(tip_fix)*1.602176565)
fix forcetip tip_fix aveforce 0.0 0.0 ${Fatom}
fix forcetip tip_fix aveforce 0.0 0.0 -0.00040653509132346
run 100
WARNING: One or more atoms are time integrated more than once (src/modify.cpp:296)
Per MPI rank memory allocation (min/avg/max) = 8.788 | 8.854 | 8.925 Mbytes
   Step          Temp          E_pair         E_mol          TotEng         Press     
     11649   195.05171     -28116.484      0             -27857.755     -3989.3299    
     11700   197.30461     -28119.686      0             -27857.968     -3802.0244    
     11749   195.26745     -28117.176      0             -27858.16      -3684.6346    
Loop time of 0.270909 on 8 procs for 100 steps with 10522 atoms

Performance: 31.893 ns/day, 0.753 hours/ns, 369.128 timesteps/s, 3.884 Matom-step/s
99.1% CPU use with 8 MPI tasks x 1 OpenMP threads

MPI task timing breakdown:
Section |  min time  |  avg time  |  max time  |%varavg| %total
---------------------------------------------------------------
Pair    | 0.00013562 | 0.10296    | 0.2217     |  32.1 | 38.01
Neigh   | 0.00089178 | 0.012456   | 0.025628   |  10.3 |  4.60
Comm    | 0.012212   | 0.13179    | 0.25171    |  28.2 | 48.65
Output  | 0.00015632 | 0.00019488 | 0.00040915 |   0.0 |  0.07
Modify  | 0.0090054  | 0.021174   | 0.044466   |   9.8 |  7.82
Other   |            | 0.002339   |            |       |  0.86

Nlocal:        1315.25 ave        2645 max           0 min
Histogram: 4 0 0 0 0 0 0 0 0 4
Nghost:           1209 ave        2181 max         251 min
Histogram: 4 0 0 0 0 0 0 0 0 4
Neighs:              0 ave           0 max           0 min
Histogram: 8 0 0 0 0 0 0 0 0 0

Total # of neighbors = 0
Ave neighs/atom = 0
Neighbor list builds = 8
Dangerous builds = 0

unfix forcetip

next i
jump SELF loop_load

variable f equal ${f}+${fincr}
variable f equal 0.17+${fincr}
variable f equal 0.17+0.01

# Set force variable

variable Fatom equal -v_f/(count(tip_fix)*1.602176565)
fix forcetip tip_fix aveforce 0.0 0.0 ${Fatom}
fix forcetip tip_fix aveforce 0.0 0.0 -0.00043044892022484
run 100
WARNING: One or more atoms are time integrated more than once (src/modify.cpp:296)
Per MPI rank memory allocation (min/avg/max) = 8.788 | 8.854 | 8.925 Mbytes
   Step          Temp          E_pair         E_mol          TotEng         Press     
     11749   195.26745     -28117.176      0             -27858.16      -3625.5995    
     11800   197.03153     -28119.161      0             -27857.805     -3377.0769    
     11849   195.18557     -28117.623      0             -27858.716     -3793.2541    
Loop time of 0.298422 on 8 procs for 100 steps with 10522 atoms

Performance: 28.952 ns/day, 0.829 hours/ns, 335.095 timesteps/s, 3.526 Matom-step/s
99.2% CPU use with 8 MPI tasks x 1 OpenMP threads

MPI task timing breakdown:
Section |  min time  |  avg time  |  max time  |%varavg| %total
---------------------------------------------------------------
Pair    | 0.00028045 | 0.11212    | 0.23014    |  33.4 | 37.57
Neigh   | 0.00065716 | 0.012492   | 0.025855   |  10.6 |  4.19
Comm    | 0.031162   | 0.14548    | 0.25987    |  28.2 | 48.75
Output  | 7.2666e-05 | 8.6829e-05 | 0.00015059 |   0.0 |  0.03
Modify  | 0.010098   | 0.025835   | 0.049661   |  10.1 |  8.66
Other   |            | 0.002409   |            |       |  0.81

Nlocal:        1315.25 ave        2643 max           0 min
Histogram: 4 0 0 0 0 0 0 0 0 4
Nghost:        1208.75 ave        2180 max         251 min
Histogram: 4 0 0 0 0 0 0 0 0 4
Neighs:              0 ave           0 max           0 min
Histogram: 8 0 0 0 0 0 0 0 0 0

Total # of neighbors = 0
Ave neighs/atom = 0
Neighbor list builds = 8
Dangerous builds = 0

unfix forcetip

next i
jump SELF loop_load

variable f equal ${f}+${fincr}
variable f equal 0.18+${fincr}
variable f equal 0.18+0.01

# Set force variable

variable Fatom equal -v_f/(count(tip_fix)*1.602176565)
fix forcetip tip_fix aveforce 0.0 0.0 ${Fatom}
fix forcetip tip_fix aveforce 0.0 0.0 -0.00045436274912622
run 100
WARNING: One or more atoms are time integrated more than once (src/modify.cpp:296)
Per MPI rank memory allocation (min/avg/max) = 8.788 | 8.854 | 8.925 Mbytes
   Step          Temp          E_pair         E_mol          TotEng         Press     
     11849   195.18557     -28117.623      0             -27858.716     -3842.155     
     11900   198.38957     -28120.688      0             -27857.531     -3963.5626    
     11949   198.67794     -28121.426      0             -27857.886     -3973.9248    
Loop time of 0.261533 on 8 procs for 100 steps with 10522 atoms

Performance: 33.036 ns/day, 0.726 hours/ns, 382.361 timesteps/s, 4.023 Matom-step/s
99.5% CPU use with 8 MPI tasks x 1 OpenMP threads

MPI task timing breakdown:
Section |  min time  |  avg time  |  max time  |%varavg| %total
---------------------------------------------------------------
Pair    | 0.00022778 | 0.10302    | 0.21122    |  32.0 | 39.39
Neigh   | 0.00046733 | 0.011578   | 0.023764   |  10.3 |  4.43
Comm    | 0.016842   | 0.12733    | 0.23799    |  29.6 | 48.69
Output  | 7.2337e-05 | 8.5613e-05 | 0.00014602 |   0.0 |  0.03
Modify  | 0.0092093  | 0.017326   | 0.030215   |   6.5 |  6.62
Other   |            | 0.00219    |            |       |  0.84

Nlocal:        1315.25 ave        2642 max           0 min
Histogram: 4 0 0 0 0 0 0 0 0 4
Nghost:        1209.25 ave        2176 max         251 min
Histogram: 4 0 0 0 0 0 0 0 0 4
Neighs:              0 ave           0 max           0 min
Histogram: 8 0 0 0 0 0 0 0 0 0

Total # of neighbors = 0
Ave neighs/atom = 0
Neighbor list builds = 8
Dangerous builds = 0

unfix forcetip

next i
jump SELF loop_load

variable f equal ${f}+${fincr}
variable f equal 0.19+${fincr}
variable f equal 0.19+0.01

# Set force variable

variable Fatom equal -v_f/(count(tip_fix)*1.602176565)
fix forcetip tip_fix aveforce 0.0 0.0 ${Fatom}
fix forcetip tip_fix aveforce 0.0 0.0 -0.0004782765780276
run 100
WARNING: One or more atoms are time integrated more than once (src/modify.cpp:296)
Per MPI rank memory allocation (min/avg/max) = 8.788 | 8.854 | 8.925 Mbytes
   Step          Temp          E_pair         E_mol          TotEng         Press     
     11949   198.67794     -28121.426      0             -27857.886     -3943.263     
     12000   194.06231     -28116.327      0             -27858.91      -3749.6816    
     12049   196.7617      -28118.616      0             -27857.618     -4060.3318    
Loop time of 0.288385 on 8 procs for 100 steps with 10522 atoms

Performance: 29.960 ns/day, 0.801 hours/ns, 346.758 timesteps/s, 3.649 Matom-step/s
99.3% CPU use with 8 MPI tasks x 1 OpenMP threads

MPI task timing breakdown:
Section |  min time  |  avg time  |  max time  |%varavg| %total
---------------------------------------------------------------
Pair    | 0.00021332 | 0.11404    | 0.23333    |  33.7 | 39.55
Neigh   | 0.00050431 | 0.012643   | 0.025907   |  10.8 |  4.38
Comm    | 0.01647    | 0.13985    | 0.26322    |  31.5 | 48.50
Output  | 0.0015668  | 0.0017128  | 0.0018682  |   0.2 |  0.59
Modify  | 0.0098093  | 0.017633   | 0.030085   |   6.3 |  6.11
Other   |            | 0.002501   |            |       |  0.87

Nlocal:        1315.25 ave        2646 max           0 min
Histogram: 4 0 0 0 0 0 0 0 0 4
Nghost:        1209.62 ave        2180 max         251 min
Histogram: 4 0 0 0 0 0 0 0 0 4
Neighs:              0 ave           0 max           0 min
Histogram: 8 0 0 0 0 0 0 0 0 0

Total # of neighbors = 0
Ave neighs/atom = 0
Neighbor list builds = 8
Dangerous builds = 0

unfix forcetip

next i
jump SELF loop_load

variable f equal ${f}+${fincr}
variable f equal 0.2+${fincr}
variable f equal 0.2+0.01

# Set force variable

variable Fatom equal -v_f/(count(tip_fix)*1.602176565)
fix forcetip tip_fix aveforce 0.0 0.0 ${Fatom}
fix forcetip tip_fix aveforce 0.0 0.0 -0.00050219040692898
run 100
WARNING: One or more atoms are time integrated more than once (src/modify.cpp:296)
Per MPI rank memory allocation (min/avg/max) = 8.788 | 8.855 | 8.925 Mbytes
   Step          Temp          E_pair         E_mol          TotEng         Press     
     12049   196.7617      -28118.616      0             -27857.618     -4068.842     
     12100   198.5575      -28121.996      0             -27858.615     -3935.8807    
     12149   198.68212     -28120.657      0             -27857.112     -3721.8764    
Loop time of 0.26699 on 8 procs for 100 steps with 10522 atoms

Performance: 32.361 ns/day, 0.742 hours/ns, 374.546 timesteps/s, 3.941 Matom-step/s
99.4% CPU use with 8 MPI tasks x 1 OpenMP threads

MPI task timing breakdown:
Section |  min time  |  avg time  |  max time  |%varavg| %total
---------------------------------------------------------------
Pair    | 0.0001861  | 0.10445    | 0.21192    |  32.3 | 39.12
Neigh   | 0.00069838 | 0.01227    | 0.024397   |  10.4 |  4.60
Comm    | 0.019795   | 0.13009    | 0.24036    |  29.5 | 48.72
Output  | 7.0103e-05 | 8.4283e-05 | 0.00015858 |   0.0 |  0.03
Modify  | 0.0089901  | 0.018016   | 0.029392   |   6.8 |  6.75
Other   |            | 0.002076   |            |       |  0.78

Nlocal:        1315.25 ave        2641 max           0 min
Histogram: 4 0 0 0 0 0 0 0 0 4
Nghost:        1209.75 ave        2182 max         251 min
Histogram: 4 0 0 0 0 0 0 0 0 4
Neighs:              0 ave           0 max           0 min
Histogram: 8 0 0 0 0 0 0 0 0 0

Total # of neighbors = 0
Ave neighs/atom = 0
Neighbor list builds = 8
Dangerous builds = 0

unfix forcetip

next i
jump SELF loop_load

variable f equal ${f}+${fincr}
variable f equal 0.21+${fincr}
variable f equal 0.21+0.01

# Set force variable

variable Fatom equal -v_f/(count(tip_fix)*1.602176565)
fix forcetip tip_fix aveforce 0.0 0.0 ${Fatom}
fix forcetip tip_fix aveforce 0.0 0.0 -0.00052610423583036
run 100
WARNING: One or more atoms are time integrated more than once (src/modify.cpp:296)
Per MPI rank memory allocation (min/avg/max) = 8.788 | 8.855 | 8.925 Mbytes
   Step          Temp          E_pair         E_mol          TotEng         Press     
     12149   198.68212     -28120.657      0             -27857.112     -3620.5876    
     12200   195.04676     -28117.686      0             -27858.963     -3716.0976    
     12249   197.04698     -28119.439      0             -27858.062     -3652.1035    
Loop time of 0.24384 on 8 procs for 100 steps with 10522 atoms

Performance: 35.433 ns/day, 0.677 hours/ns, 410.104 timesteps/s, 4.315 Matom-step/s
99.7% CPU use with 8 MPI tasks x 1 OpenMP threads

MPI task timing breakdown:
Section |  min time  |  avg time  |  max time  |%varavg| %total
---------------------------------------------------------------
Pair    | 0.00011864 | 0.098247   | 0.19973    |  31.3 | 40.29
Neigh   | 0.00071313 | 0.011933   | 0.023643   |  10.2 |  4.89
Comm    | 0.0112     | 0.11883    | 0.22642    |  30.2 | 48.73
Output  | 0.00010461 | 0.00012837 | 0.00026363 |   0.0 |  0.05
Modify  | 0.0079472  | 0.012905   | 0.022143   |   4.7 |  5.29
Other   |            | 0.001801   |            |       |  0.74

Nlocal:        1315.25 ave        2643 max           0 min
Histogram: 4 0 0 0 0 0 0 0 0 4
Nghost:        1207.62 ave        2178 max         251 min
Histogram: 4 0 0 0 0 0 0 0 0 4
Neighs:              0 ave           0 max           0 min
Histogram: 8 0 0 0 0 0 0 0 0 0

Total # of neighbors = 0
Ave neighs/atom = 0
Neighbor list builds = 8
Dangerous builds = 0

unfix forcetip

next i
jump SELF loop_load

variable f equal ${f}+${fincr}
variable f equal 0.22+${fincr}
variable f equal 0.22+0.01

# Set force variable

variable Fatom equal -v_f/(count(tip_fix)*1.602176565)
fix forcetip tip_fix aveforce 0.0 0.0 ${Fatom}
fix forcetip tip_fix aveforce 0.0 0.0 -0.00055001806473174
run 100
WARNING: One or more atoms are time integrated more than once (src/modify.cpp:296)
Per MPI rank memory allocation (min/avg/max) = 8.788 | 8.855 | 8.925 Mbytes
   Step          Temp          E_pair         E_mol          TotEng         Press     
     12249   197.04698     -28119.439      0             -27858.062     -3671.8668    
     12300   197.72409     -28120.476      0             -27858.201     -3705.7417    
     12349   195.79176     -28118.891      0             -27859.179     -4019.7315    
Loop time of 0.248394 on 8 procs for 100 steps with 10522 atoms

Performance: 34.783 ns/day, 0.690 hours/ns, 402.586 timesteps/s, 4.236 Matom-step/s
99.2% CPU use with 8 MPI tasks x 1 OpenMP threads

MPI task timing breakdown:
Section |  min time  |  avg time  |  max time  |%varavg| %total
---------------------------------------------------------------
Pair    | 0.00012769 | 0.099575   | 0.20144    |  31.5 | 40.09
Neigh   | 0.00063445 | 0.011853   | 0.023757   |  10.3 |  4.77
Comm    | 0.01315    | 0.121      | 0.22885    |  30.1 | 48.71
Output  | 0.00010867 | 0.00013769 | 0.00030702 |   0.0 |  0.06
Modify  | 0.0083106  | 0.013869   | 0.025135   |   5.2 |  5.58
Other   |            | 0.001962   |            |       |  0.79

Nlocal:        1315.25 ave        2640 max           0 min
Histogram: 4 0 0 0 0 0 0 0 0 4
Nghost:         1207.5 ave        2176 max         251 min
Histogram: 4 0 0 0 0 0 0 0 0 4
Neighs:              0 ave           0 max           0 min
Histogram: 8 0 0 0 0 0 0 0 0 0

Total # of neighbors = 0
Ave neighs/atom = 0
Neighbor list builds = 8
Dangerous builds = 0

unfix forcetip

next i
jump SELF loop_load

variable f equal ${f}+${fincr}
variable f equal 0.23+${fincr}
variable f equal 0.23+0.01

# Set force variable

variable Fatom equal -v_f/(count(tip_fix)*1.602176565)
fix forcetip tip_fix aveforce 0.0 0.0 ${Fatom}
fix forcetip tip_fix aveforce 0.0 0.0 -0.00057393189363312
run 100
WARNING: One or more atoms are time integrated more than once (src/modify.cpp:296)
Per MPI rank memory allocation (min/avg/max) = 8.788 | 8.855 | 8.925 Mbytes
   Step          Temp          E_pair         E_mol          TotEng         Press     
     12349   195.79176     -28118.891      0             -27859.179     -3862.7416    
     12400   197.81054     -28121.019      0             -27858.63      -3693.0242    
     12449   195.92129     -28119.392      0             -27859.509     -4098.4506    
Loop time of 0.275295 on 8 procs for 100 steps with 10522 atoms

Performance: 31.385 ns/day, 0.765 hours/ns, 363.247 timesteps/s, 3.822 Matom-step/s
99.6% CPU use with 8 MPI tasks x 1 OpenMP threads

MPI task timing breakdown:
Section |  min time  |  avg time  |  max time  |%varavg| %total
---------------------------------------------------------------
Pair    | 0.00014928 | 0.10427    | 0.22528    |  32.3 | 37.88
Neigh   | 0.0010211  | 0.012301   | 0.024383   |  10.1 |  4.47
Comm    | 0.014422   | 0.13387    | 0.25353    |  28.0 | 48.63
Output  | 6.0514e-05 | 7.1056e-05 | 0.0001186  |   0.0 |  0.03
Modify  | 0.0094046  | 0.022588   | 0.045187   |  10.1 |  8.20
Other   |            | 0.002195   |            |       |  0.80

Nlocal:        1315.25 ave        2642 max           0 min
Histogram: 4 0 0 0 0 0 0 0 0 4
Nghost:           1210 ave        2180 max         251 min
Histogram: 4 0 0 0 0 0 0 0 0 4
Neighs:              0 ave           0 max           0 min
Histogram: 8 0 0 0 0 0 0 0 0 0

Total # of neighbors = 0
Ave neighs/atom = 0
Neighbor list builds = 8
Dangerous builds = 0

unfix forcetip

next i
jump SELF loop_load

variable f equal ${f}+${fincr}
variable f equal 0.24+${fincr}
variable f equal 0.24+0.01

# Set force variable

variable Fatom equal -v_f/(count(tip_fix)*1.602176565)
fix forcetip tip_fix aveforce 0.0 0.0 ${Fatom}
fix forcetip tip_fix aveforce 0.0 0.0 -0.0005978457225345
run 100
WARNING: One or more atoms are time integrated more than once (src/modify.cpp:296)
Per MPI rank memory allocation (min/avg/max) = 8.788 | 8.855 | 8.925 Mbytes
   Step          Temp          E_pair         E_mol          TotEng         Press     
     12449   195.92129     -28119.392      0             -27859.509     -3999.7059    
     12500   197.78028     -28121.38       0             -27859.031     -3756.8668    
     12549   194.8692      -28117.226      0             -27858.739     -3891.0816    
Loop time of 0.265196 on 8 procs for 100 steps with 10522 atoms

Performance: 32.580 ns/day, 0.737 hours/ns, 377.079 timesteps/s, 3.968 Matom-step/s
99.5% CPU use with 8 MPI tasks x 1 OpenMP threads

MPI task timing breakdown:
Section |  min time  |  avg time  |  max time  |%varavg| %total
---------------------------------------------------------------
Pair    | 0.00013785 | 0.10277    | 0.21042    |  32.0 | 38.75
Neigh   | 0.00082048 | 0.011908   | 0.024136   |  10.1 |  4.49
Comm    | 0.020012   | 0.1292     | 0.23856    |  28.7 | 48.72
Output  | 5.7617e-05 | 6.7459e-05 | 0.00011289 |   0.0 |  0.03
Modify  | 0.0088438  | 0.01919    | 0.037983   |   7.9 |  7.24
Other   |            | 0.002057   |            |       |  0.78

Nlocal:        1315.25 ave        2641 max           0 min
Histogram: 4 0 0 0 0 0 0 0 0 4
Nghost:           1208 ave        2173 max         251 min
Histogram: 4 0 0 0 0 0 0 0 0 4
Neighs:              0 ave           0 max           0 min
Histogram: 8 0 0 0 0 0 0 0 0 0

Total # of neighbors = 0
Ave neighs/atom = 0
Neighbor list builds = 8
Dangerous builds = 0

unfix forcetip

next i
jump SELF loop_load

variable f equal ${f}+${fincr}
variable f equal 0.25+${fincr}
variable f equal 0.25+0.01

# Set force variable

variable Fatom equal -v_f/(count(tip_fix)*1.602176565)
fix forcetip tip_fix aveforce 0.0 0.0 ${Fatom}
fix forcetip tip_fix aveforce 0.0 0.0 -0.00062175955143588
run 100
WARNING: One or more atoms are time integrated more than once (src/modify.cpp:296)
Per MPI rank memory allocation (min/avg/max) = 8.788 | 8.855 | 8.925 Mbytes
   Step          Temp          E_pair         E_mol          TotEng         Press     
     12549   194.8692      -28117.226      0             -27858.739     -3806.9199    
     12600   195.89849     -28119.113      0             -27859.26      -3909.6862    
     12649   196.34083     -28119.142      0             -27858.703     -3882.4628    
Loop time of 0.241202 on 8 procs for 100 steps with 10522 atoms

Performance: 35.821 ns/day, 0.670 hours/ns, 414.590 timesteps/s, 4.362 Matom-step/s
99.6% CPU use with 8 MPI tasks x 1 OpenMP threads

MPI task timing breakdown:
Section |  min time  |  avg time  |  max time  |%varavg| %total
---------------------------------------------------------------
Pair    | 0.00010681 | 0.097011   | 0.19686    |  31.1 | 40.22
Neigh   | 0.0008241  | 0.01199    | 0.023515   |  10.1 |  4.97
Comm    | 0.011319   | 0.11755    | 0.22389    |  30.0 | 48.73
Output  | 7.2336e-05 | 8.7275e-05 | 0.00016905 |   0.0 |  0.04
Modify  | 0.0078986  | 0.012773   | 0.023475   |   4.8 |  5.30
Other   |            | 0.001793   |            |       |  0.74

Nlocal:        1315.25 ave        2642 max           0 min
Histogram: 4 0 0 0 0 0 0 0 0 4
Nghost:        1207.88 ave        2178 max         251 min
Histogram: 4 0 0 0 0 0 0 0 0 4
Neighs:              0 ave           0 max           0 min
Histogram: 8 0 0 0 0 0 0 0 0 0

Total # of neighbors = 0
Ave neighs/atom = 0
Neighbor list builds = 8
Dangerous builds = 0

unfix forcetip

next i
jump SELF loop_load

variable f equal ${f}+${fincr}
variable f equal 0.26+${fincr}
variable f equal 0.26+0.01

# Set force variable

variable Fatom equal -v_f/(count(tip_fix)*1.602176565)
fix forcetip tip_fix aveforce 0.0 0.0 ${Fatom}
fix forcetip tip_fix aveforce 0.0 0.0 -0.00064567338033726
run 100
WARNING: One or more atoms are time integrated more than once (src/modify.cpp:296)
Per MPI rank memory allocation (min/avg/max) = 8.788 | 8.855 | 8.925 Mbytes
   Step          Temp          E_pair         E_mol          TotEng         Press     
     12649   196.34083     -28119.142      0             -27858.703     -3744.1416    
     12700   197.44515     -28120.18       0             -27858.275     -3961.7691    
     12749   194.79271     -28116.204      0             -27857.818     -3511.8519    
Loop time of 0.246784 on 8 procs for 100 steps with 10522 atoms

Performance: 35.010 ns/day, 0.686 hours/ns, 405.213 timesteps/s, 4.264 Matom-step/s
99.8% CPU use with 8 MPI tasks x 1 OpenMP threads

MPI task timing breakdown:
Section |  min time  |  avg time  |  max time  |%varavg| %total
---------------------------------------------------------------
Pair    | 0.00013716 | 0.09912    | 0.20092    |  31.4 | 40.16
Neigh   | 0.00093943 | 0.012037   | 0.0241     |  10.1 |  4.88
Comm    | 0.011541   | 0.12005    | 0.22867    |  30.3 | 48.64
Output  | 7.488e-05  | 8.9905e-05 | 0.00016978 |   0.0 |  0.04
Modify  | 0.0083833  | 0.013345   | 0.024643   |   4.9 |  5.41
Other   |            | 0.002146   |            |       |  0.87

Nlocal:        1315.25 ave        2642 max           0 min
Histogram: 4 0 0 0 0 0 0 0 0 4
Nghost:        1209.38 ave        2178 max         251 min
Histogram: 4 0 0 0 0 0 0 0 0 4
Neighs:              0 ave           0 max           0 min
Histogram: 8 0 0 0 0 0 0 0 0 0

Total # of neighbors = 0
Ave neighs/atom = 0
Neighbor list builds = 8
Dangerous builds = 0

unfix forcetip

next i
jump SELF loop_load

variable f equal ${f}+${fincr}
variable f equal 0.27+${fincr}
variable f equal 0.27+0.01

# Set force variable

variable Fatom equal -v_f/(count(tip_fix)*1.602176565)
fix forcetip tip_fix aveforce 0.0 0.0 ${Fatom}
fix forcetip tip_fix aveforce 0.0 0.0 -0.00066958720923864
run 100
WARNING: One or more atoms are time integrated more than once (src/modify.cpp:296)
Per MPI rank memory allocation (min/avg/max) = 8.788 | 8.855 | 8.925 Mbytes
   Step          Temp          E_pair         E_mol          TotEng         Press     
     12749   194.79271     -28116.204      0             -27857.818     -3550.3878    
     12800   198.20319     -28120.924      0             -27858.014     -3582.0299    
     12849   198.30105     -28119.767      0             -27856.727     -3884.8882    
Loop time of 0.244801 on 8 procs for 100 steps with 10522 atoms

Performance: 35.294 ns/day, 0.680 hours/ns, 408.494 timesteps/s, 4.298 Matom-step/s
99.6% CPU use with 8 MPI tasks x 1 OpenMP threads

MPI task timing breakdown:
Section |  min time  |  avg time  |  max time  |%varavg| %total
---------------------------------------------------------------
Pair    | 8.29e-05   | 0.098301   | 0.20002    |  31.3 | 40.16
Neigh   | 0.0011053  | 0.012152   | 0.023863   |  10.0 |  4.96
Comm    | 0.011821   | 0.11921    | 0.2266     |  30.0 | 48.70
Output  | 7.0673e-05 | 8.4489e-05 | 0.00016101 |   0.0 |  0.03
Modify  | 0.0077592  | 0.013272   | 0.026062   |   5.5 |  5.42
Other   |            | 0.001785   |            |       |  0.73

Nlocal:        1315.25 ave        2647 max           0 min
Histogram: 4 0 0 0 0 0 0 0 0 4
Nghost:         1209.5 ave        2182 max         251 min
Histogram: 4 0 0 0 0 0 0 0 0 4
Neighs:              0 ave           0 max           0 min
Histogram: 8 0 0 0 0 0 0 0 0 0

Total # of neighbors = 0
Ave neighs/atom = 0
Neighbor list builds = 8
Dangerous builds = 0

unfix forcetip

next i
jump SELF loop_load

variable f equal ${f}+${fincr}
variable f equal 0.28+${fincr}
variable f equal 0.28+0.01

# Set force variable

variable Fatom equal -v_f/(count(tip_fix)*1.602176565)
fix forcetip tip_fix aveforce 0.0 0.0 ${Fatom}
fix forcetip tip_fix aveforce 0.0 0.0 -0.00069350103814002
run 100
WARNING: One or more atoms are time integrated more than once (src/modify.cpp:296)
Per MPI rank memory allocation (min/avg/max) = 8.788 | 8.855 | 8.925 Mbytes
   Step          Temp          E_pair         E_mol          TotEng         Press     
     12849   198.30105     -28119.767      0             -27856.727     -3790.55      
     12900   198.07595     -28118.882      0             -27856.14      -4034.6526    
     12949   197.47959     -28119.045      0             -27857.095     -3801.0304    
Loop time of 0.250638 on 8 procs for 100 steps with 10522 atoms

Performance: 34.472 ns/day, 0.696 hours/ns, 398.982 timesteps/s, 4.198 Matom-step/s
98.9% CPU use with 8 MPI tasks x 1 OpenMP threads

MPI task timing breakdown:
Section |  min time  |  avg time  |  max time  |%varavg| %total
---------------------------------------------------------------
Pair    | 8.4707e-05 | 0.10028    | 0.20631    |  31.6 | 40.01
Neigh   | 0.00046044 | 0.011116   | 0.02215    |  10.0 |  4.43
Comm    | 0.012114   | 0.12209    | 0.23242    |  29.7 | 48.71
Output  | 6.5934e-05 | 7.8978e-05 | 0.00014047 |   0.0 |  0.03
Modify  | 0.0083803  | 0.015151   | 0.029029   |   6.1 |  6.04
Other   |            | 0.001927   |            |       |  0.77

Nlocal:        1315.25 ave        2645 max           0 min
Histogram: 4 0 0 0 0 0 0 0 0 4
Nghost:        1208.25 ave        2180 max         251 min
Histogram: 4 0 0 0 0 0 0 0 0 4
Neighs:              0 ave           0 max           0 min
Histogram: 8 0 0 0 0 0 0 0 0 0

Total # of neighbors = 0
Ave neighs/atom = 0
Neighbor list builds = 8
Dangerous builds = 0

unfix forcetip

next i
jump SELF loop_load

variable f equal ${f}+${fincr}
variable f equal 0.29+${fincr}
variable f equal 0.29+0.01

# Set force variable

variable Fatom equal -v_f/(count(tip_fix)*1.602176565)
fix forcetip tip_fix aveforce 0.0 0.0 ${Fatom}
fix forcetip tip_fix aveforce 0.0 0.0 -0.0007174148670414
run 100
WARNING: One or more atoms are time integrated more than once (src/modify.cpp:296)
Per MPI rank memory allocation (min/avg/max) = 8.788 | 8.855 | 8.925 Mbytes
   Step          Temp          E_pair         E_mol          TotEng         Press     
     12949   197.47959     -28119.045      0             -27857.095     -3758.8645    
     13000   195.53249     -28117.117      0             -27857.75      -3674.2056    
     13049   197.64932     -28121.291      0             -27859.116     -3904.882     
Loop time of 0.240096 on 8 procs for 100 steps with 10522 atoms

Performance: 35.986 ns/day, 0.667 hours/ns, 416.499 timesteps/s, 4.382 Matom-step/s
99.5% CPU use with 8 MPI tasks x 1 OpenMP threads

MPI task timing breakdown:
Section |  min time  |  avg time  |  max time  |%varavg| %total
---------------------------------------------------------------
Pair    | 9.3529e-05 | 0.096536   | 0.19553    |  31.0 | 40.21
Neigh   | 0.0010605  | 0.011763   | 0.023216   |   9.8 |  4.90
Comm    | 0.011414   | 0.11619    | 0.22085    |  30.0 | 48.39
Output  | 0.0013906  | 0.0015329  | 0.0016927  |   0.3 |  0.64
Modify  | 0.0077078  | 0.012208   | 0.022424   |   4.6 |  5.08
Other   |            | 0.001867   |            |       |  0.78

Nlocal:        1315.25 ave        2641 max           0 min
Histogram: 4 0 0 0 0 0 0 0 0 4
Nghost:        1208.38 ave        2173 max         251 min
Histogram: 4 0 0 0 0 0 0 0 0 4
Neighs:              0 ave           0 max           0 min
Histogram: 8 0 0 0 0 0 0 0 0 0

Total # of neighbors = 0
Ave neighs/atom = 0
Neighbor list builds = 8
Dangerous builds = 0

unfix forcetip

next i
jump SELF loop_load

variable f equal ${f}+${fincr}
variable f equal 0.3+${fincr}
variable f equal 0.3+0.01

# Set force variable

variable Fatom equal -v_f/(count(tip_fix)*1.602176565)
fix forcetip tip_fix aveforce 0.0 0.0 ${Fatom}
fix forcetip tip_fix aveforce 0.0 0.0 -0.00074132869594278
run 100
WARNING: One or more atoms are time integrated more than once (src/modify.cpp:296)
Per MPI rank memory allocation (min/avg/max) = 8.788 | 8.855 | 8.925 Mbytes
   Step          Temp          E_pair         E_mol          TotEng         Press     
     13049   197.64932     -28121.291      0             -27859.116     -3777.5629    
     13100   197.64769     -28120.135      0             -27857.962     -4144.9165    
     13149   198.09509     -28122.192      0             -27859.426     -3832.7095    
Loop time of 0.252176 on 8 procs for 100 steps with 10522 atoms

Performance: 34.262 ns/day, 0.700 hours/ns, 396.548 timesteps/s, 4.172 Matom-step/s
99.8% CPU use with 8 MPI tasks x 1 OpenMP threads

MPI task timing breakdown:
Section |  min time  |  avg time  |  max time  |%varavg| %total
---------------------------------------------------------------
Pair    | 0.00011324 | 0.099903   | 0.20787    |  31.6 | 39.62
Neigh   | 0.0010288  | 0.011867   | 0.023622   |   9.9 |  4.71
Comm    | 0.011837   | 0.12267    | 0.23364    |  29.4 | 48.65
Output  | 7.45e-05   | 8.9696e-05 | 0.0001653  |   0.0 |  0.04
Modify  | 0.0084361  | 0.015815   | 0.029747   |   6.6 |  6.27
Other   |            | 0.001828   |            |       |  0.72

Nlocal:        1315.25 ave        2644 max           0 min
Histogram: 4 0 0 0 0 0 0 0 0 4
Nghost:        1209.12 ave        2180 max         251 min
Histogram: 4 0 0 0 0 0 0 0 0 4
Neighs:              0 ave           0 max           0 min
Histogram: 8 0 0 0 0 0 0 0 0 0

Total # of neighbors = 0
Ave neighs/atom = 0
Neighbor list builds = 8
Dangerous builds = 0

unfix forcetip

next i
jump SELF loop_load

variable f equal ${f}+${fincr}
variable f equal 0.31+${fincr}
variable f equal 0.31+0.01

# Set force variable

variable Fatom equal -v_f/(count(tip_fix)*1.602176565)
fix forcetip tip_fix aveforce 0.0 0.0 ${Fatom}
fix forcetip tip_fix aveforce 0.0 0.0 -0.00076524252484416
run 100
WARNING: One or more atoms are time integrated more than once (src/modify.cpp:296)
Per MPI rank memory allocation (min/avg/max) = 8.788 | 8.855 | 8.925 Mbytes
   Step          Temp          E_pair         E_mol          TotEng         Press     
     13149   198.09509     -28122.192      0             -27859.426     -3768.0194    
     13200   194.21592     -28116.288      0             -27858.667     -3401.353     
     13249   198.40839     -28122.26       0             -27859.078     -3749.8189    
Loop time of 0.240806 on 8 procs for 100 steps with 10522 atoms

Performance: 35.879 ns/day, 0.669 hours/ns, 415.271 timesteps/s, 4.369 Matom-step/s
99.1% CPU use with 8 MPI tasks x 1 OpenMP threads

MPI task timing breakdown:
Section |  min time  |  avg time  |  max time  |%varavg| %total
---------------------------------------------------------------
Pair    | 9.7033e-05 | 0.097574   | 0.19713    |  31.2 | 40.52
Neigh   | 0.00098455 | 0.011843   | 0.023785   |   9.9 |  4.92
Comm    | 0.01154    | 0.11722    | 0.22291    |  30.3 | 48.68
Output  | 8.2525e-05 | 0.00010416 | 0.00021956 |   0.0 |  0.04
Modify  | 0.0078775  | 0.012219   | 0.022069   |   4.4 |  5.07
Other   |            | 0.001844   |            |       |  0.77

Nlocal:        1315.25 ave        2640 max           0 min
Histogram: 4 0 0 0 0 0 0 0 0 4
Nghost:         1208.5 ave        2179 max         251 min
Histogram: 4 0 0 0 0 0 0 0 0 4
Neighs:              0 ave           0 max           0 min
Histogram: 8 0 0 0 0 0 0 0 0 0

Total # of neighbors = 0
Ave neighs/atom = 0
Neighbor list builds = 8
Dangerous builds = 0

unfix forcetip

next i
jump SELF loop_load

variable f equal ${f}+${fincr}
variable f equal 0.32+${fincr}
variable f equal 0.32+0.01

# Set force variable

variable Fatom equal -v_f/(count(tip_fix)*1.602176565)
fix forcetip tip_fix aveforce 0.0 0.0 ${Fatom}
fix forcetip tip_fix aveforce 0.0 0.0 -0.00078915635374554
run 100
WARNING: One or more atoms are time integrated more than once (src/modify.cpp:296)
Per MPI rank memory allocation (min/avg/max) = 8.788 | 8.855 | 8.925 Mbytes
   Step          Temp          E_pair         E_mol          TotEng         Press     
     13249   198.40839     -28122.26       0             -27859.078     -3672.28      
     13300   196.51073     -28120.354      0             -27859.689     -3848.9426    
     13349   197.2133      -28120.673      0             -27859.076     -3924.3627    
Loop time of 0.24369 on 8 procs for 100 steps with 10522 atoms

Performance: 35.455 ns/day, 0.677 hours/ns, 410.358 timesteps/s, 4.318 Matom-step/s
99.0% CPU use with 8 MPI tasks x 1 OpenMP threads

MPI task timing breakdown:
Section |  min time  |  avg time  |  max time  |%varavg| %total
---------------------------------------------------------------
Pair    | 0.00010081 | 0.098569   | 0.20128    |  31.4 | 40.45
Neigh   | 0.00085607 | 0.011751   | 0.023337   |   9.9 |  4.82
Comm    | 0.0099295  | 0.11862    | 0.22734    |  30.3 | 48.68
Output  | 7.1514e-05 | 8.6742e-05 | 0.0001693  |   0.0 |  0.04
Modify  | 0.0080874  | 0.012728   | 0.021641   |   4.5 |  5.22
Other   |            | 0.001934   |            |       |  0.79

Nlocal:        1315.25 ave        2641 max           0 min
Histogram: 4 0 0 0 0 0 0 0 0 4
Nghost:        1207.38 ave        2175 max         251 min
Histogram: 4 0 0 0 0 0 0 0 0 4
Neighs:              0 ave           0 max           0 min
Histogram: 8 0 0 0 0 0 0 0 0 0

Total # of neighbors = 0
Ave neighs/atom = 0
Neighbor list builds = 8
Dangerous builds = 0

unfix forcetip

next i
jump SELF loop_load

variable f equal ${f}+${fincr}
variable f equal 0.33+${fincr}
variable f equal 0.33+0.01

# Set force variable

variable Fatom equal -v_f/(count(tip_fix)*1.602176565)
fix forcetip tip_fix aveforce 0.0 0.0 ${Fatom}
fix forcetip tip_fix aveforce 0.0 0.0 -0.00081307018264692
run 100
WARNING: One or more atoms are time integrated more than once (src/modify.cpp:296)
Per MPI rank memory allocation (min/avg/max) = 8.788 | 8.855 | 8.925 Mbytes
   Step          Temp          E_pair         E_mol          TotEng         Press     
     13349   197.2133      -28120.673      0             -27859.076     -3905.906     
     13400   199.49202     -28123.788      0             -27859.168     -3683.9645    
     13449   196.78304     -28120.205      0             -27859.178     -4226.0244    
Loop time of 0.247656 on 8 procs for 100 steps with 10522 atoms

Performance: 34.887 ns/day, 0.688 hours/ns, 403.787 timesteps/s, 4.249 Matom-step/s
99.4% CPU use with 8 MPI tasks x 1 OpenMP threads

MPI task timing breakdown:
Section |  min time  |  avg time  |  max time  |%varavg| %total
---------------------------------------------------------------
Pair    | 8.6688e-05 | 0.098654   | 0.20179    |  31.4 | 39.84
Neigh   | 0.00088871 | 0.011974   | 0.023771   |  10.1 |  4.83
Comm    | 0.01275    | 0.12065    | 0.22865    |  29.6 | 48.72
Output  | 7.0552e-05 | 8.4482e-05 | 0.00015694 |   0.0 |  0.03
Modify  | 0.0080635  | 0.014469   | 0.026744   |   5.8 |  5.84
Other   |            | 0.001821   |            |       |  0.74

Nlocal:        1315.25 ave        2639 max           0 min
Histogram: 4 0 0 0 0 0 0 0 0 4
Nghost:        1208.88 ave        2170 max         251 min
Histogram: 4 0 0 0 0 0 0 0 0 4
Neighs:              0 ave           0 max           0 min
Histogram: 8 0 0 0 0 0 0 0 0 0

Total # of neighbors = 0
Ave neighs/atom = 0
Neighbor list builds = 8
Dangerous builds = 0

unfix forcetip

next i
jump SELF loop_load

variable f equal ${f}+${fincr}
variable f equal 0.34+${fincr}
variable f equal 0.34+0.01

# Set force variable

variable Fatom equal -v_f/(count(tip_fix)*1.602176565)
fix forcetip tip_fix aveforce 0.0 0.0 ${Fatom}
fix forcetip tip_fix aveforce 0.0 0.0 -0.0008369840115483
run 100
WARNING: One or more atoms are time integrated more than once (src/modify.cpp:296)
Per MPI rank memory allocation (min/avg/max) = 8.788 | 8.855 | 8.925 Mbytes
   Step          Temp          E_pair         E_mol          TotEng         Press     
     13449   196.78304     -28120.205      0             -27859.178     -4127.5126    
     13500   197.03843     -28119.457      0             -27858.092     -3819.329     
     13549   198.69576     -28120.972      0             -27857.408     -3848.0217    
Loop time of 0.242828 on 8 procs for 100 steps with 10522 atoms

Performance: 35.581 ns/day, 0.675 hours/ns, 411.814 timesteps/s, 4.333 Matom-step/s
99.5% CPU use with 8 MPI tasks x 1 OpenMP threads

MPI task timing breakdown:
Section |  min time  |  avg time  |  max time  |%varavg| %total
---------------------------------------------------------------
Pair    | 0.0001005  | 0.098305   | 0.20074    |  31.3 | 40.48
Neigh   | 0.0008748  | 0.01166    | 0.023233   |   9.9 |  4.80
Comm    | 0.010414   | 0.11823    | 0.22599    |  30.2 | 48.69
Output  | 7.3798e-05 | 8.8781e-05 | 0.00016835 |   0.0 |  0.04
Modify  | 0.0079489  | 0.012739   | 0.022832   |   4.7 |  5.25
Other   |            | 0.001803   |            |       |  0.74

Nlocal:        1315.25 ave        2642 max           0 min
Histogram: 4 0 0 0 0 0 0 0 0 4
Nghost:        1206.62 ave        2173 max         251 min
Histogram: 4 0 0 0 0 0 0 0 0 4
Neighs:              0 ave           0 max           0 min
Histogram: 8 0 0 0 0 0 0 0 0 0

Total # of neighbors = 0
Ave neighs/atom = 0
Neighbor list builds = 8
Dangerous builds = 0

unfix forcetip

next i
jump SELF loop_load

variable f equal ${f}+${fincr}
variable f equal 0.35+${fincr}
variable f equal 0.35+0.01

# Set force variable

variable Fatom equal -v_f/(count(tip_fix)*1.602176565)
fix forcetip tip_fix aveforce 0.0 0.0 ${Fatom}
fix forcetip tip_fix aveforce 0.0 0.0 -0.00086089784044968
run 100
WARNING: One or more atoms are time integrated more than once (src/modify.cpp:296)
Per MPI rank memory allocation (min/avg/max) = 8.788 | 8.855 | 8.925 Mbytes
   Step          Temp          E_pair         E_mol          TotEng         Press     
     13549   198.69576     -28120.972      0             -27857.408     -3801.4798    
     13600   196.82814     -28118.157      0             -27857.071     -3975.0759    
     13649   198.42343     -28120.253      0             -27857.051     -3390.3601    
Loop time of 0.249826 on 8 procs for 100 steps with 10522 atoms

Performance: 34.584 ns/day, 0.694 hours/ns, 400.278 timesteps/s, 4.212 Matom-step/s
99.3% CPU use with 8 MPI tasks x 1 OpenMP threads

MPI task timing breakdown:
Section |  min time  |  avg time  |  max time  |%varavg| %total
---------------------------------------------------------------
Pair    | 0.0001144  | 0.099308   | 0.20466    |  31.5 | 39.75
Neigh   | 0.0011611  | 0.012405   | 0.024927   |  10.1 |  4.97
Comm    | 0.010066   | 0.12153    | 0.23315    |  29.9 | 48.65
Output  | 6.5462e-05 | 7.9239e-05 | 0.00014561 |   0.0 |  0.03
Modify  | 0.008362   | 0.014519   | 0.02771    |   5.9 |  5.81
Other   |            | 0.001986   |            |       |  0.80

Nlocal:        1315.25 ave        2643 max           0 min
Histogram: 4 0 0 0 0 0 0 0 0 4
Nghost:        1209.25 ave        2177 max         251 min
Histogram: 4 0 0 0 0 0 0 0 0 4
Neighs:              0 ave           0 max           0 min
Histogram: 8 0 0 0 0 0 0 0 0 0

Total # of neighbors = 0
Ave neighs/atom = 0
Neighbor list builds = 8
Dangerous builds = 0

unfix forcetip

next i
jump SELF loop_load

variable f equal ${f}+${fincr}
variable f equal 0.36+${fincr}
variable f equal 0.36+0.01

# Set force variable

variable Fatom equal -v_f/(count(tip_fix)*1.602176565)
fix forcetip tip_fix aveforce 0.0 0.0 ${Fatom}
fix forcetip tip_fix aveforce 0.0 0.0 -0.00088481166935106
run 100
WARNING: One or more atoms are time integrated more than once (src/modify.cpp:296)
Per MPI rank memory allocation (min/avg/max) = 8.788 | 8.855 | 8.925 Mbytes
   Step          Temp          E_pair         E_mol          TotEng         Press     
     13649   198.42343     -28120.253      0             -27857.051     -3422.1918    
     13700   199.63045     -28122.444      0             -27857.64      -3587.7534    
     13749   197.91117     -28121.101      0             -27858.578     -3837.2597    
Loop time of 0.249737 on 8 procs for 100 steps with 10522 atoms

Performance: 34.596 ns/day, 0.694 hours/ns, 400.422 timesteps/s, 4.213 Matom-step/s
98.9% CPU use with 8 MPI tasks x 1 OpenMP threads

MPI task timing breakdown:
Section |  min time  |  avg time  |  max time  |%varavg| %total
---------------------------------------------------------------
Pair    | 0.00011266 | 0.099715   | 0.20166    |  31.5 | 39.93
Neigh   | 0.00054566 | 0.011401   | 0.022428   |  10.1 |  4.57
Comm    | 0.015398   | 0.12161    | 0.22804    |  29.7 | 48.70
Output  | 7.4069e-05 | 8.9699e-05 | 0.0001741  |   0.0 |  0.04
Modify  | 0.0084702  | 0.014849   | 0.025118   |   5.4 |  5.95
Other   |            | 0.002072   |            |       |  0.83

Nlocal:        1315.25 ave        2642 max           0 min
Histogram: 4 0 0 0 0 0 0 0 0 4
Nghost:        1208.38 ave        2174 max         251 min
Histogram: 4 0 0 0 0 0 0 0 0 4
Neighs:              0 ave           0 max           0 min
Histogram: 8 0 0 0 0 0 0 0 0 0

Total # of neighbors = 0
Ave neighs/atom = 0
Neighbor list builds = 8
Dangerous builds = 0

unfix forcetip

next i
jump SELF loop_load

variable f equal ${f}+${fincr}
variable f equal 0.37+${fincr}
variable f equal 0.37+0.01

# Set force variable

variable Fatom equal -v_f/(count(tip_fix)*1.602176565)
fix forcetip tip_fix aveforce 0.0 0.0 ${Fatom}
fix forcetip tip_fix aveforce 0.0 0.0 -0.00090872549825244
run 100
WARNING: One or more atoms are time integrated more than once (src/modify.cpp:296)
Per MPI rank memory allocation (min/avg/max) = 8.788 | 8.855 | 8.925 Mbytes
   Step          Temp          E_pair         E_mol          TotEng         Press     
     13749   197.91117     -28121.101      0             -27858.578     -3761.843     
     13800   199.51806     -28123.534      0             -27858.88      -4228.6992    
     13849   198.0181      -28122.233      0             -27859.568     -3881.1309    
Loop time of 0.245578 on 8 procs for 100 steps with 10522 atoms

Performance: 35.182 ns/day, 0.682 hours/ns, 407.203 timesteps/s, 4.285 Matom-step/s
99.3% CPU use with 8 MPI tasks x 1 OpenMP threads

MPI task timing breakdown:
Section |  min time  |  avg time  |  max time  |%varavg| %total
---------------------------------------------------------------
Pair    | 0.00012182 | 0.098949   | 0.20145    |  31.4 | 40.29
Neigh   | 0.00065417 | 0.011318   | 0.022172   |   9.9 |  4.61
Comm    | 0.012276   | 0.11966    | 0.22717    |  30.0 | 48.73
Output  | 7.3949e-05 | 8.8358e-05 | 0.00016531 |   0.0 |  0.04
Modify  | 0.00819    | 0.013643   | 0.024032   |   5.0 |  5.56
Other   |            | 0.001918   |            |       |  0.78

Nlocal:        1315.25 ave        2639 max           0 min
Histogram: 4 0 0 0 0 0 0 0 0 4
Nghost:        1209.25 ave        2172 max         251 min
Histogram: 4 0 0 0 0 0 0 0 0 4
Neighs:              0 ave           0 max           0 min
Histogram: 8 0 0 0 0 0 0 0 0 0

Total # of neighbors = 0
Ave neighs/atom = 0
Neighbor list builds = 8
Dangerous builds = 0

unfix forcetip

next i
jump SELF loop_load

variable f equal ${f}+${fincr}
variable f equal 0.38+${fincr}
variable f equal 0.38+0.01

# Set force variable

variable Fatom equal -v_f/(count(tip_fix)*1.602176565)
fix forcetip tip_fix aveforce 0.0 0.0 ${Fatom}
fix forcetip tip_fix aveforce 0.0 0.0 -0.00093263932715382
run 100
WARNING: One or more atoms are time integrated more than once (src/modify.cpp:296)
Per MPI rank memory allocation (min/avg/max) = 8.788 | 8.855 | 8.925 Mbytes
   Step          Temp          E_pair         E_mol          TotEng         Press     
     13849   198.0181      -28122.233      0             -27859.568     -3763.7551    
     13900   196.86446     -28120.34       0             -27859.206     -3821.442     
     13949   198.17091     -28121.602      0             -27858.735     -3787.3901    
Loop time of 0.256475 on 8 procs for 100 steps with 10522 atoms

Performance: 33.687 ns/day, 0.712 hours/ns, 389.901 timesteps/s, 4.103 Matom-step/s
99.3% CPU use with 8 MPI tasks x 1 OpenMP threads

MPI task timing breakdown:
Section |  min time  |  avg time  |  max time  |%varavg| %total
---------------------------------------------------------------
Pair    | 0.00014383 | 0.1018     | 0.20836    |  31.9 | 39.69
Neigh   | 0.00086427 | 0.011885   | 0.02325    |  10.0 |  4.63
Comm    | 0.014481   | 0.12482    | 0.23515    |  29.8 | 48.67
Output  | 7.7075e-05 | 9.247e-05  | 0.00017014 |   0.0 |  0.04
Modify  | 0.0086809  | 0.015899   | 0.02855    |   6.1 |  6.20
Other   |            | 0.001978   |            |       |  0.77

Nlocal:        1315.25 ave        2642 max           0 min
Histogram: 4 0 0 0 0 0 0 0 0 4
Nghost:        1209.12 ave        2178 max         251 min
Histogram: 4 0 0 0 0 0 0 0 0 4
Neighs:              0 ave           0 max           0 min
Histogram: 8 0 0 0 0 0 0 0 0 0

Total # of neighbors = 0
Ave neighs/atom = 0
Neighbor list builds = 8
Dangerous builds = 0

unfix forcetip

next i
jump SELF loop_load

variable f equal ${f}+${fincr}
variable f equal 0.39+${fincr}
variable f equal 0.39+0.01

# Set force variable

variable Fatom equal -v_f/(count(tip_fix)*1.602176565)
fix forcetip tip_fix aveforce 0.0 0.0 ${Fatom}
fix forcetip tip_fix aveforce 0.0 0.0 -0.0009565531560552
run 100
WARNING: One or more atoms are time integrated more than once (src/modify.cpp:296)
Per MPI rank memory allocation (min/avg/max) = 8.788 | 8.855 | 8.925 Mbytes
   Step          Temp          E_pair         E_mol          TotEng         Press     
     13949   198.17091     -28121.602      0             -27858.735     -3852.7703    
     14000   197.16077     -28120.215      0             -27858.687     -3960.0881    
     14049   197.4336      -28120.933      0             -27859.044     -3839.3732    
Loop time of 0.250311 on 8 procs for 100 steps with 10522 atoms

Performance: 34.517 ns/day, 0.695 hours/ns, 399.504 timesteps/s, 4.204 Matom-step/s
99.0% CPU use with 8 MPI tasks x 1 OpenMP threads

MPI task timing breakdown:
Section |  min time  |  avg time  |  max time  |%varavg| %total
---------------------------------------------------------------
Pair    | 0.00011853 | 0.098973   | 0.20112    |  31.4 | 39.54
Neigh   | 0.0014186  | 0.012105   | 0.023215   |   9.7 |  4.84
Comm    | 0.013402   | 0.12039    | 0.22738    |  29.8 | 48.10
Output  | 0.0023093  | 0.0025031  | 0.0026947  |   0.3 |  1.00
Modify  | 0.0083578  | 0.014209   | 0.02454    |   5.2 |  5.68
Other   |            | 0.00213    |            |       |  0.85

Nlocal:        1315.25 ave        2646 max           0 min
Histogram: 4 0 0 0 0 0 0 0 0 4
Nghost:        1208.38 ave        2173 max         251 min
Histogram: 4 0 0 0 0 0 0 0 0 4
Neighs:              0 ave           0 max           0 min
Histogram: 8 0 0 0 0 0 0 0 0 0

Total # of neighbors = 0
Ave neighs/atom = 0
Neighbor list builds = 8
Dangerous builds = 0

unfix forcetip

next i
jump SELF loop_load

variable f equal ${f}+${fincr}
variable f equal 0.4+${fincr}
variable f equal 0.4+0.01

# Set force variable

variable Fatom equal -v_f/(count(tip_fix)*1.602176565)
fix forcetip tip_fix aveforce 0.0 0.0 ${Fatom}
fix forcetip tip_fix aveforce 0.0 0.0 -0.00098046698495658
run 100
WARNING: One or more atoms are time integrated more than once (src/modify.cpp:296)
Per MPI rank memory allocation (min/avg/max) = 8.788 | 8.855 | 8.925 Mbytes
   Step          Temp          E_pair         E_mol          TotEng         Press     
     14049   197.4336      -28120.933      0             -27859.044     -3822.3706    
     14100   198.52749     -28122.53       0             -27859.19      -3887.8504    
     14149   198.2146      -28122.633      0             -27859.707     -3405.4622    
Loop time of 0.254755 on 8 procs for 100 steps with 10522 atoms

Performance: 33.915 ns/day, 0.708 hours/ns, 392.534 timesteps/s, 4.130 Matom-step/s
99.3% CPU use with 8 MPI tasks x 1 OpenMP threads

MPI task timing breakdown:
Section |  min time  |  avg time  |  max time  |%varavg| %total
---------------------------------------------------------------
Pair    | 0.00015847 | 0.10111    | 0.20647    |  31.8 | 39.69
Neigh   | 0.00095871 | 0.011856   | 0.023254   |   9.9 |  4.65
Comm    | 0.014339   | 0.1238     | 0.2333     |  29.7 | 48.60
Output  | 7.2326e-05 | 8.5151e-05 | 0.00015374 |   0.0 |  0.03
Modify  | 0.0087798  | 0.015794   | 0.028427   |   6.0 |  6.20
Other   |            | 0.002111   |            |       |  0.83

Nlocal:        1315.25 ave        2646 max           0 min
Histogram: 4 0 0 0 0 0 0 0 0 4
Nghost:        1207.38 ave        2180 max         251 min
Histogram: 4 0 0 0 0 0 0 0 0 4
Neighs:              0 ave           0 max           0 min
Histogram: 8 0 0 0 0 0 0 0 0 0

Total # of neighbors = 0
Ave neighs/atom = 0
Neighbor list builds = 8
Dangerous builds = 0

unfix forcetip

next i
jump SELF loop_load

variable f equal ${f}+${fincr}
variable f equal 0.41+${fincr}
variable f equal 0.41+0.01

# Set force variable

variable Fatom equal -v_f/(count(tip_fix)*1.602176565)
fix forcetip tip_fix aveforce 0.0 0.0 ${Fatom}
fix forcetip tip_fix aveforce 0.0 0.0 -0.00100438081385796
run 100
WARNING: One or more atoms are time integrated more than once (src/modify.cpp:296)
Per MPI rank memory allocation (min/avg/max) = 8.788 | 8.857 | 8.926 Mbytes
   Step          Temp          E_pair         E_mol          TotEng         Press     
     14149   198.2146      -28122.633      0             -27859.707     -3464.4837    
     14200   197.0717      -28120.483      0             -27859.074     -3912.0067    
     14249   201.7279      -28126.275      0             -27858.689     -3699.2127    
Loop time of 0.245019 on 8 procs for 100 steps with 10522 atoms

Performance: 35.263 ns/day, 0.681 hours/ns, 408.131 timesteps/s, 4.294 Matom-step/s
99.6% CPU use with 8 MPI tasks x 1 OpenMP threads

MPI task timing breakdown:
Section |  min time  |  avg time  |  max time  |%varavg| %total
---------------------------------------------------------------
Pair    | 9.992e-05  | 0.098312   | 0.20221    |  31.3 | 40.12
Neigh   | 0.00087503 | 0.011839   | 0.023153   |   9.9 |  4.83
Comm    | 0.0097001  | 0.1191     | 0.22874    |  30.0 | 48.61
Output  | 0.00011768 | 0.00014408 | 0.00029617 |   0.0 |  0.06
Modify  | 0.0082327  | 0.013628   | 0.026496   |   5.5 |  5.56
Other   |            | 0.001993   |            |       |  0.81

Nlocal:        1315.25 ave        2645 max           0 min
Histogram: 4 0 0 0 0 0 0 0 0 4
Nghost:        1208.75 ave        2172 max         251 min
Histogram: 4 0 0 0 0 0 0 0 0 4
Neighs:              0 ave           0 max           0 min
Histogram: 8 0 0 0 0 0 0 0 0 0

Total # of neighbors = 0
Ave neighs/atom = 0
Neighbor list builds = 8
Dangerous builds = 0

unfix forcetip

next i
jump SELF loop_load

variable f equal ${f}+${fincr}
variable f equal 0.42+${fincr}
variable f equal 0.42+0.01

# Set force variable

variable Fatom equal -v_f/(count(tip_fix)*1.602176565)
fix forcetip tip_fix aveforce 0.0 0.0 ${Fatom}
fix forcetip tip_fix aveforce 0.0 0.0 -0.00102829464275934
run 100
WARNING: One or more atoms are time integrated more than once (src/modify.cpp:296)
Per MPI rank memory allocation (min/avg/max) = 8.788 | 8.857 | 8.926 Mbytes
   Step          Temp          E_pair         E_mol          TotEng         Press     
     14249   201.7279      -28126.275      0             -27858.689     -3623.3022    
     14300   199.27551     -28122.146      0             -27857.813     -4094.9293    
     14349   199.14623     -28122.038      0             -27857.877     -3838.7766    
Loop time of 0.25143 on 8 procs for 100 steps with 10522 atoms

Performance: 34.363 ns/day, 0.698 hours/ns, 397.725 timesteps/s, 4.185 Matom-step/s
99.7% CPU use with 8 MPI tasks x 1 OpenMP threads

MPI task timing breakdown:
Section |  min time  |  avg time  |  max time  |%varavg| %total
---------------------------------------------------------------
Pair    | 0.00017091 | 0.099908   | 0.20317    |  31.6 | 39.74
Neigh   | 0.0008933  | 0.012075   | 0.023784   |  10.1 |  4.80
Comm    | 0.014141   | 0.12226    | 0.23042    |  29.8 | 48.62
Output  | 7.2707e-05 | 8.6256e-05 | 0.00015761 |   0.0 |  0.03
Modify  | 0.0085718  | 0.01503    | 0.027162   |   5.6 |  5.98
Other   |            | 0.002074   |            |       |  0.82

Nlocal:        1315.25 ave        2645 max           0 min
Histogram: 4 0 0 0 0 0 0 0 0 4
Nghost:        1206.88 ave        2172 max         251 min
Histogram: 4 0 0 0 0 0 0 0 0 4
Neighs:              0 ave           0 max           0 min
Histogram: 8 0 0 0 0 0 0 0 0 0

Total # of neighbors = 0
Ave neighs/atom = 0
Neighbor list builds = 8
Dangerous builds = 0

unfix forcetip

next i
jump SELF loop_load

variable f equal ${f}+${fincr}
variable f equal 0.43+${fincr}
variable f equal 0.43+0.01

# Set force variable

variable Fatom equal -v_f/(count(tip_fix)*1.602176565)
fix forcetip tip_fix aveforce 0.0 0.0 ${Fatom}
fix forcetip tip_fix aveforce 0.0 0.0 -0.00105220847166072
run 100
WARNING: One or more atoms are time integrated more than once (src/modify.cpp:296)
Per MPI rank memory allocation (min/avg/max) = 8.788 | 8.857 | 8.926 Mbytes
   Step          Temp          E_pair         E_mol          TotEng         Press     
     14349   199.14623     -28122.038      0             -27857.877     -3878.3489    
     14400   196.88212     -28118.715      0             -27857.558     -3837.9287    
     14449   201.09046     -28124.375      0             -27857.635     -3892.0022    
Loop time of 0.249268 on 8 procs for 100 steps with 10522 atoms

Performance: 34.662 ns/day, 0.692 hours/ns, 401.175 timesteps/s, 4.221 Matom-step/s
99.2% CPU use with 8 MPI tasks x 1 OpenMP threads

MPI task timing breakdown:
Section |  min time  |  avg time  |  max time  |%varavg| %total
---------------------------------------------------------------
Pair    | 0.00012753 | 0.099605   | 0.20294    |  31.5 | 39.96
Neigh   | 0.00089312 | 0.011728   | 0.023066   |   9.9 |  4.71
Comm    | 0.012769   | 0.12104    | 0.2293     |  29.9 | 48.56
Output  | 0.00021934 | 0.00025391 | 0.00043073 |   0.0 |  0.10
Modify  | 0.0083224  | 0.014328   | 0.026645   |   5.5 |  5.75
Other   |            | 0.002308   |            |       |  0.93

Nlocal:        1315.25 ave        2645 max           0 min
Histogram: 4 0 0 0 0 0 0 0 0 4
Nghost:        1208.75 ave        2182 max         251 min
Histogram: 4 0 0 0 0 0 0 0 0 4
Neighs:              0 ave           0 max           0 min
Histogram: 8 0 0 0 0 0 0 0 0 0

Total # of neighbors = 0
Ave neighs/atom = 0
Neighbor list builds = 8
Dangerous builds = 0

unfix forcetip

next i
jump SELF loop_load

variable f equal ${f}+${fincr}
variable f equal 0.44+${fincr}
variable f equal 0.44+0.01

# Set force variable

variable Fatom equal -v_f/(count(tip_fix)*1.602176565)
fix forcetip tip_fix aveforce 0.0 0.0 ${Fatom}
fix forcetip tip_fix aveforce 0.0 0.0 -0.0010761223005621
run 100
WARNING: One or more atoms are time integrated more than once (src/modify.cpp:296)
Per MPI rank memory allocation (min/avg/max) = 8.788 | 8.857 | 8.926 Mbytes
   Step          Temp          E_pair         E_mol          TotEng         Press     
     14449   201.09046     -28124.375      0             -27857.635     -3802.1942    
     14500   199.89372     -28122.13       0             -27856.977     -3998.9046    
     14549   199.93303     -28122.366      0             -27857.161     -3786.0437    
Loop time of 0.247682 on 8 procs for 100 steps with 10522 atoms

Performance: 34.883 ns/day, 0.688 hours/ns, 403.743 timesteps/s, 4.248 Matom-step/s
99.0% CPU use with 8 MPI tasks x 1 OpenMP threads

MPI task timing breakdown:
Section |  min time  |  avg time  |  max time  |%varavg| %total
---------------------------------------------------------------
Pair    | 0.00014588 | 0.099072   | 0.20102    |  31.4 | 40.00
Neigh   | 0.00075447 | 0.011729   | 0.023044   |  10.0 |  4.74
Comm    | 0.012983   | 0.12028    | 0.22753    |  30.0 | 48.56
Output  | 7.5262e-05 | 9.0474e-05 | 0.00016652 |   0.0 |  0.04
Modify  | 0.0087572  | 0.014296   | 0.023336   |   4.9 |  5.77
Other   |            | 0.002214   |            |       |  0.89

Nlocal:        1315.25 ave        2641 max           0 min
Histogram: 4 0 0 0 0 0 0 0 0 4
Nghost:           1209 ave        2180 max         251 min
Histogram: 4 0 0 0 0 0 0 0 0 4
Neighs:              0 ave           0 max           0 min
Histogram: 8 0 0 0 0 0 0 0 0 0

Total # of neighbors = 0
Ave neighs/atom = 0
Neighbor list builds = 8
Dangerous builds = 0

unfix forcetip

next i
jump SELF loop_load

variable f equal ${f}+${fincr}
variable f equal 0.45+${fincr}
variable f equal 0.45+0.01

# Set force variable

variable Fatom equal -v_f/(count(tip_fix)*1.602176565)
fix forcetip tip_fix aveforce 0.0 0.0 ${Fatom}
fix forcetip tip_fix aveforce 0.0 0.0 -0.00110003612946348
run 100
WARNING: One or more atoms are time integrated more than once (src/modify.cpp:296)
Per MPI rank memory allocation (min/avg/max) = 8.788 | 8.857 | 8.926 Mbytes
   Step          Temp          E_pair         E_mol          TotEng         Press     
     14549   199.93303     -28122.366      0             -27857.161     -3770.4842    
     14600   197.07705     -28119.876      0             -27858.459     -3617.9924    
     14649   198.54634     -28122.636      0             -27859.27      -3788.6166    
Loop time of 0.248843 on 8 procs for 100 steps with 10522 atoms

Performance: 34.721 ns/day, 0.691 hours/ns, 401.860 timesteps/s, 4.228 Matom-step/s
99.6% CPU use with 8 MPI tasks x 1 OpenMP threads

MPI task timing breakdown:
Section |  min time  |  avg time  |  max time  |%varavg| %total
---------------------------------------------------------------
Pair    | 0.00011277 | 0.099954   | 0.20133    |  31.6 | 40.17
Neigh   | 0.00076935 | 0.011774   | 0.022984   |  10.1 |  4.73
Comm    | 0.014993   | 0.12132    | 0.22767    |  30.0 | 48.75
Output  | 7.2195e-05 | 8.661e-05  | 0.00016068 |   0.0 |  0.03
Modify  | 0.0080248  | 0.013878   | 0.021837   |   5.0 |  5.58
Other   |            | 0.001829   |            |       |  0.74

Nlocal:        1315.25 ave        2641 max           0 min
Histogram: 4 0 0 0 0 0 0 0 0 4
Nghost:           1208 ave        2173 max         251 min
Histogram: 4 0 0 0 0 0 0 0 0 4
Neighs:              0 ave           0 max           0 min
Histogram: 8 0 0 0 0 0 0 0 0 0

Total # of neighbors = 0
Ave neighs/atom = 0
Neighbor list builds = 8
Dangerous builds = 0

unfix forcetip

next i
jump SELF loop_load

variable f equal ${f}+${fincr}
variable f equal 0.46+${fincr}
variable f equal 0.46+0.01

# Set force variable

variable Fatom equal -v_f/(count(tip_fix)*1.602176565)
fix forcetip tip_fix aveforce 0.0 0.0 ${Fatom}
fix forcetip tip_fix aveforce 0.0 0.0 -0.00112394995836486
run 100
WARNING: One or more atoms are time integrated more than once (src/modify.cpp:296)
Per MPI rank memory allocation (min/avg/max) = 8.788 | 8.857 | 8.926 Mbytes
   Step          Temp          E_pair         E_mol          TotEng         Press     
     14649   198.54634     -28122.636      0             -27859.27      -3788.5993    
     14700   198.96439     -28122.583      0             -27858.663     -3803.5859    
     14749   200.19503     -28125.468      0             -27859.915     -3957.7855    
Loop time of 0.24834 on 8 procs for 100 steps with 10522 atoms

Performance: 34.791 ns/day, 0.690 hours/ns, 402.673 timesteps/s, 4.237 Matom-step/s
99.7% CPU use with 8 MPI tasks x 1 OpenMP threads

MPI task timing breakdown:
Section |  min time  |  avg time  |  max time  |%varavg| %total
---------------------------------------------------------------
Pair    | 9.1806e-05 | 0.099167   | 0.2025     |  31.5 | 39.93
Neigh   | 0.0010458  | 0.012189   | 0.023646   |  10.0 |  4.91
Comm    | 0.012905   | 0.12073    | 0.22853    |  29.9 | 48.61
Output  | 0.00011636 | 0.00014156 | 0.0002836  |   0.0 |  0.06
Modify  | 0.0082063  | 0.014163   | 0.02349    |   5.3 |  5.70
Other   |            | 0.001954   |            |       |  0.79

Nlocal:        1315.25 ave        2644 max           0 min
Histogram: 4 0 0 0 0 0 0 0 0 4
Nghost:        1208.75 ave        2176 max         250 min
Histogram: 4 0 0 0 0 0 0 0 0 4
Neighs:              0 ave           0 max           0 min
Histogram: 8 0 0 0 0 0 0 0 0 0

Total # of neighbors = 0
Ave neighs/atom = 0
Neighbor list builds = 8
Dangerous builds = 0

unfix forcetip

next i
jump SELF loop_load

variable f equal ${f}+${fincr}
variable f equal 0.47+${fincr}
variable f equal 0.47+0.01

# Set force variable

variable Fatom equal -v_f/(count(tip_fix)*1.602176565)
fix forcetip tip_fix aveforce 0.0 0.0 ${Fatom}
fix forcetip tip_fix aveforce 0.0 0.0 -0.00114786378726624
run 100
WARNING: One or more atoms are time integrated more than once (src/modify.cpp:296)
Per MPI rank memory allocation (min/avg/max) = 8.788 | 8.857 | 8.926 Mbytes
   Step          Temp          E_pair         E_mol          TotEng         Press     
     14749   200.19503     -28125.468      0             -27859.915     -3958.6138    
     14800   197.50748     -28120.996      0             -27859.008     -3780.4003    
     14849   198.54764     -28122.006      0             -27858.639     -3984.5091    
Loop time of 0.245926 on 8 procs for 100 steps with 10522 atoms

Performance: 35.132 ns/day, 0.683 hours/ns, 406.626 timesteps/s, 4.279 Matom-step/s
99.5% CPU use with 8 MPI tasks x 1 OpenMP threads

MPI task timing breakdown:
Section |  min time  |  avg time  |  max time  |%varavg| %total
---------------------------------------------------------------
Pair    | 9.8159e-05 | 0.09887    | 0.20239    |  31.4 | 40.20
Neigh   | 0.00092949 | 0.012191   | 0.023562   |  10.1 |  4.96
Comm    | 0.010154   | 0.11967    | 0.22907    |  30.3 | 48.66
Output  | 7.0552e-05 | 8.448e-05  | 0.00015913 |   0.0 |  0.03
Modify  | 0.0082011  | 0.013189   | 0.02248    |   4.8 |  5.36
Other   |            | 0.00192    |            |       |  0.78

Nlocal:        1315.25 ave        2644 max           0 min
Histogram: 4 0 0 0 0 0 0 0 0 4
Nghost:         1205.5 ave        2171 max         248 min
Histogram: 4 0 0 0 0 0 0 0 0 4
Neighs:              0 ave           0 max           0 min
Histogram: 8 0 0 0 0 0 0 0 0 0

Total # of neighbors = 0
Ave neighs/atom = 0
Neighbor list builds = 8
Dangerous builds = 0

unfix forcetip

next i
jump SELF loop_load

variable f equal ${f}+${fincr}
variable f equal 0.48+${fincr}
variable f equal 0.48+0.01

# Set force variable

variable Fatom equal -v_f/(count(tip_fix)*1.602176565)
fix forcetip tip_fix aveforce 0.0 0.0 ${Fatom}
fix forcetip tip_fix aveforce 0.0 0.0 -0.00117177761616762
run 100
WARNING: One or more atoms are time integrated more than once (src/modify.cpp:296)
Per MPI rank memory allocation (min/avg/max) = 8.788 | 8.857 | 8.926 Mbytes
   Step          Temp          E_pair         E_mol          TotEng         Press     
     14849   198.54764     -28122.006      0             -27858.639     -3846.0872    
     14900   200.0007      -28125.532      0             -27860.238     -3856.115     
     14949   196.19966     -28120.808      0             -27860.556     -3579.6329    
Loop time of 0.246103 on 8 procs for 100 steps with 10522 atoms

Performance: 35.107 ns/day, 0.684 hours/ns, 406.334 timesteps/s, 4.275 Matom-step/s
99.4% CPU use with 8 MPI tasks x 1 OpenMP threads

MPI task timing breakdown:
Section |  min time  |  avg time  |  max time  |%varavg| %total
---------------------------------------------------------------
Pair    | 0.00010451 | 0.098874   | 0.20289    |  31.4 | 40.18
Neigh   | 0.00092627 | 0.011953   | 0.023511   |  10.0 |  4.86
Comm    | 0.0096511  | 0.11973    | 0.22972    |  30.1 | 48.65
Output  | 7.6605e-05 | 9.3115e-05 | 0.00017467 |   0.0 |  0.04
Modify  | 0.0084285  | 0.013536   | 0.022636   |   4.9 |  5.50
Other   |            | 0.00192    |            |       |  0.78

Nlocal:        1315.25 ave        2645 max           0 min
Histogram: 4 0 0 0 0 0 0 0 0 4
Nghost:           1205 ave        2177 max         243 min
Histogram: 4 0 0 0 0 0 0 0 0 4
Neighs:              0 ave           0 max           0 min
Histogram: 8 0 0 0 0 0 0 0 0 0

Total # of neighbors = 0
Ave neighs/atom = 0
Neighbor list builds = 8
Dangerous builds = 0

unfix forcetip

next i
jump SELF loop_load

variable f equal ${f}+${fincr}
variable f equal 0.49+${fincr}
variable f equal 0.49+0.01

# Set force variable

variable Fatom equal -v_f/(count(tip_fix)*1.602176565)
fix forcetip tip_fix aveforce 0.0 0.0 ${Fatom}
fix forcetip tip_fix aveforce 0.0 0.0 -0.001195691445069
run 100
WARNING: One or more atoms are time integrated more than once (src/modify.cpp:296)
Per MPI rank memory allocation (min/avg/max) = 8.788 | 8.857 | 8.926 Mbytes
   Step          Temp          E_pair         E_mol          TotEng         Press     
     14949   196.19966     -28120.808      0             -27860.556     -3577.5435    
     15000   199.72817     -28125.074      0             -27860.141     -3712.3363    
     15049   194.5311      -28117.395      0             -27859.356     -3646.0327    
Loop time of 0.248456 on 8 procs for 100 steps with 10522 atoms

Performance: 34.775 ns/day, 0.690 hours/ns, 402.486 timesteps/s, 4.235 Matom-step/s
99.5% CPU use with 8 MPI tasks x 1 OpenMP threads

MPI task timing breakdown:
Section |  min time  |  avg time  |  max time  |%varavg| %total
---------------------------------------------------------------
Pair    | 7.6138e-05 | 0.098569   | 0.20219    |  31.4 | 39.67
Neigh   | 0.00057301 | 0.011468   | 0.022583   |  10.0 |  4.62
Comm    | 0.012692   | 0.12012    | 0.22766    |  29.6 | 48.35
Output  | 0.001828   | 0.0019749  | 0.0021344  |   0.2 |  0.79
Modify  | 0.008053   | 0.014395   | 0.025891   |   5.7 |  5.79
Other   |            | 0.001927   |            |       |  0.78

Nlocal:        1315.25 ave        2646 max           0 min
Histogram: 4 0 0 0 0 0 0 0 0 4
Nghost:        1201.88 ave        2176 max         240 min
Histogram: 4 0 0 0 0 0 0 0 0 4
Neighs:              0 ave           0 max           0 min
Histogram: 8 0 0 0 0 0 0 0 0 0

Total # of neighbors = 0
Ave neighs/atom = 0
Neighbor list builds = 8
Dangerous builds = 0

unfix forcetip

next i
jump SELF loop_load

variable f equal ${f}+${fincr}
variable f equal 0.5+${fincr}
variable f equal 0.5+0.01

# Set force variable

variable Fatom equal -v_f/(count(tip_fix)*1.602176565)
fix forcetip tip_fix aveforce 0.0 0.0 ${Fatom}
fix forcetip tip_fix aveforce 0.0 0.0 -0.00121960527397038
run 100
WARNING: One or more atoms are time integrated more than once (src/modify.cpp:296)
Per MPI rank memory allocation (min/avg/max) = 8.788 | 8.857 | 8.926 Mbytes
   Step          Temp          E_pair         E_mol          TotEng         Press     
     15049   194.5311      -28117.395      0             -27859.356     -3652.0534    
     15100   199.96603     -28124.405      0             -27859.157     -3783.1943    
     15149   197.27043     -28120.306      0             -27858.633     -4021.7442    
Loop time of 0.248125 on 8 procs for 100 steps with 10522 atoms

Performance: 34.821 ns/day, 0.689 hours/ns, 403.022 timesteps/s, 4.241 Matom-step/s
99.4% CPU use with 8 MPI tasks x 1 OpenMP threads

MPI task timing breakdown:
Section |  min time  |  avg time  |  max time  |%varavg| %total
---------------------------------------------------------------
Pair    | 0.0001005  | 0.098334   | 0.20063    |  31.3 | 39.63
Neigh   | 0.0010564  | 0.012173   | 0.023462   |  10.0 |  4.91
Comm    | 0.01417    | 0.12061    | 0.22723    |  29.5 | 48.61
Output  | 7.2576e-05 | 8.6817e-05 | 0.00016386 |   0.0 |  0.03
Modify  | 0.0084502  | 0.015031   | 0.026864   |   5.8 |  6.06
Other   |            | 0.001895   |            |       |  0.76

Nlocal:        1315.25 ave        2643 max           0 min
Histogram: 4 0 0 0 0 0 0 0 0 4
Nghost:        1196.75 ave        2169 max         234 min
Histogram: 4 0 0 0 0 0 0 0 0 4
Neighs:              0 ave           0 max           0 min
Histogram: 8 0 0 0 0 0 0 0 0 0

Total # of neighbors = 0
Ave neighs/atom = 0
Neighbor list builds = 8
Dangerous builds = 0

unfix forcetip

next i
jump SELF loop_load

variable f equal ${f}+${fincr}
variable f equal 0.51+${fincr}
variable f equal 0.51+0.01

# Set force variable

variable Fatom equal -v_f/(count(tip_fix)*1.602176565)
fix forcetip tip_fix aveforce 0.0 0.0 ${Fatom}
fix forcetip tip_fix aveforce 0.0 0.0 -0.00124351910287176
run 100
WARNING: One or more atoms are time integrated more than once (src/modify.cpp:296)
Per MPI rank memory allocation (min/avg/max) = 8.788 | 8.857 | 8.926 Mbytes
   Step          Temp          E_pair         E_mol          TotEng         Press     
     15149   197.27043     -28120.306      0             -27858.633     -3915.9101    
     15200   197.11645     -28121.891      0             -27860.422     -4017.0223    
     15249   199.35973     -28124.979      0             -27860.535     -4084.6903    
Loop time of 0.251274 on 8 procs for 100 steps with 10522 atoms

Performance: 34.385 ns/day, 0.698 hours/ns, 397.971 timesteps/s, 4.187 Matom-step/s
99.5% CPU use with 8 MPI tasks x 1 OpenMP threads

MPI task timing breakdown:
Section |  min time  |  avg time  |  max time  |%varavg| %total
---------------------------------------------------------------
Pair    | 0.00011241 | 0.099238   | 0.20196    |  31.5 | 39.49
Neigh   | 0.0011056  | 0.012571   | 0.024535   |  10.2 |  5.00
Comm    | 0.014607   | 0.12218    | 0.22974    |  29.6 | 48.63
Output  | 7.404e-05  | 8.8543e-05 | 0.00016594 |   0.0 |  0.04
Modify  | 0.0083824  | 0.015152   | 0.026507   |   5.9 |  6.03
Other   |            | 0.00204    |            |       |  0.81

Nlocal:        1315.25 ave        2645 max           0 min
Histogram: 4 0 0 0 0 0 0 0 0 4
Nghost:           1196 ave        2174 max         228 min
Histogram: 4 0 0 0 0 0 0 0 0 4
Neighs:              0 ave           0 max           0 min
Histogram: 8 0 0 0 0 0 0 0 0 0

Total # of neighbors = 0
Ave neighs/atom = 0
Neighbor list builds = 8
Dangerous builds = 0

unfix forcetip

next i
jump SELF loop_load

variable f equal ${f}+${fincr}
variable f equal 0.52+${fincr}
variable f equal 0.52+0.01

# Set force variable

variable Fatom equal -v_f/(count(tip_fix)*1.602176565)
fix forcetip tip_fix aveforce 0.0 0.0 ${Fatom}
fix forcetip tip_fix aveforce 0.0 0.0 -0.00126743293177314
run 100
WARNING: One or more atoms are time integrated more than once (src/modify.cpp:296)
Per MPI rank memory allocation (min/avg/max) = 8.788 | 8.857 | 8.926 Mbytes
   Step          Temp          E_pair         E_mol          TotEng         Press     
     15249   199.35973     -28124.979      0             -27860.535     -3990.4264    
     15300   198.0913      -28121.25       0             -27858.488     -3608.3655    
     15349   199.74829     -28124.4        0             -27859.441     -3713.9233    
Loop time of 0.250295 on 8 procs for 100 steps with 10522 atoms

Performance: 34.519 ns/day, 0.695 hours/ns, 399.529 timesteps/s, 4.204 Matom-step/s
99.8% CPU use with 8 MPI tasks x 1 OpenMP threads

MPI task timing breakdown:
Section |  min time  |  avg time  |  max time  |%varavg| %total
---------------------------------------------------------------
Pair    | 9.0559e-05 | 0.098903   | 0.20217    |  31.4 | 39.51
Neigh   | 0.00092144 | 0.012689   | 0.02549    |  10.3 |  5.07
Comm    | 0.012732   | 0.12182    | 0.231      |  29.7 | 48.67
Output  | 7.6905e-05 | 9.2291e-05 | 0.00016711 |   0.0 |  0.04
Modify  | 0.0082454  | 0.01487    | 0.026265   |   5.8 |  5.94
Other   |            | 0.001922   |            |       |  0.77

Nlocal:        1315.25 ave        2645 max           0 min
Histogram: 4 0 0 0 0 0 0 0 0 4
Nghost:        1193.62 ave        2169 max         223 min
Histogram: 4 0 0 0 0 0 0 0 0 4
Neighs:              0 ave           0 max           0 min
Histogram: 8 0 0 0 0 0 0 0 0 0

Total # of neighbors = 0
Ave neighs/atom = 0
Neighbor list builds = 8
Dangerous builds = 0

unfix forcetip

next i
jump SELF loop_load

variable f equal ${f}+${fincr}
variable f equal 0.53+${fincr}
variable f equal 0.53+0.01

# Set force variable

variable Fatom equal -v_f/(count(tip_fix)*1.602176565)
fix forcetip tip_fix aveforce 0.0 0.0 ${Fatom}
fix forcetip tip_fix aveforce 0.0 0.0 -0.00129134676067452
run 100
WARNING: One or more atoms are time integrated more than once (src/modify.cpp:296)
Per MPI rank memory allocation (min/avg/max) = 8.788 | 8.857 | 8.926 Mbytes
   Step          Temp          E_pair         E_mol          TotEng         Press     
     15349   199.74829     -28124.4        0             -27859.441     -3762.5822    
     15400   198.56504     -28124.806      0             -27861.416     -3755.1406    
     15449   198.27898     -28125.139      0             -27862.129     -3937.8676    
Loop time of 0.268004 on 8 procs for 100 steps with 10522 atoms

Performance: 32.238 ns/day, 0.744 hours/ns, 373.128 timesteps/s, 3.926 Matom-step/s
99.3% CPU use with 8 MPI tasks x 1 OpenMP threads

MPI task timing breakdown:
Section |  min time  |  avg time  |  max time  |%varavg| %total
---------------------------------------------------------------
Pair    | 0.00016821 | 0.10224    | 0.20837    |  31.9 | 38.15
Neigh   | 0.0011916  | 0.014054   | 0.026962   |  10.7 |  5.24
Comm    | 0.021397   | 0.1301     | 0.23846    |  29.0 | 48.54
Output  | 9.5199e-05 | 0.00011914 | 0.00025296 |   0.0 |  0.04
Modify  | 0.0092088  | 0.019191   | 0.035542   |   7.4 |  7.16
Other   |            | 0.002301   |            |       |  0.86

Nlocal:        1315.25 ave        2647 max           0 min
Histogram: 4 0 0 0 0 0 0 0 0 4
Nghost:        1192.25 ave        2170 max         220 min
Histogram: 4 0 0 0 0 0 0 0 0 4
Neighs:              0 ave           0 max           0 min
Histogram: 8 0 0 0 0 0 0 0 0 0

Total # of neighbors = 0
Ave neighs/atom = 0
Neighbor list builds = 9
Dangerous builds = 0

unfix forcetip

next i
jump SELF loop_load

variable f equal ${f}+${fincr}
variable f equal 0.54+${fincr}
variable f equal 0.54+0.01

# Set force variable

variable Fatom equal -v_f/(count(tip_fix)*1.602176565)
fix forcetip tip_fix aveforce 0.0 0.0 ${Fatom}
fix forcetip tip_fix aveforce 0.0 0.0 -0.0013152605895759
run 100
WARNING: One or more atoms are time integrated more than once (src/modify.cpp:296)
Per MPI rank memory allocation (min/avg/max) = 8.788 | 8.857 | 8.926 Mbytes
   Step          Temp          E_pair         E_mol          TotEng         Press     
     15449   198.27898     -28125.139      0             -27862.129     -3780.525     
     15500   197.08271     -28124.081      0             -27862.657     -3819.2822    
     15549   198.09171     -28126.314      0             -27863.552     -3543.3328    
Loop time of 0.251338 on 8 procs for 100 steps with 10522 atoms

Performance: 34.376 ns/day, 0.698 hours/ns, 397.870 timesteps/s, 4.186 Matom-step/s
99.5% CPU use with 8 MPI tasks x 1 OpenMP threads

MPI task timing breakdown:
Section |  min time  |  avg time  |  max time  |%varavg| %total
---------------------------------------------------------------
Pair    | 0.00011472 | 0.10002    | 0.20613    |  31.6 | 39.79
Neigh   | 0.00099989 | 0.012267   | 0.024059   |  10.2 |  4.88
Comm    | 0.011833   | 0.12231    | 0.23291    |  30.0 | 48.66
Output  | 7.1855e-05 | 8.6416e-05 | 0.00015945 |   0.0 |  0.03
Modify  | 0.0084234  | 0.014629   | 0.028075   |   5.8 |  5.82
Other   |            | 0.002027   |            |       |  0.81

Nlocal:        1315.25 ave        2640 max           0 min
Histogram: 4 0 0 0 0 0 0 0 0 4
Nghost:        1191.75 ave        2171 max         217 min
Histogram: 4 0 0 0 0 0 0 0 0 4
Neighs:              0 ave           0 max           0 min
Histogram: 8 0 0 0 0 0 0 0 0 0

Total # of neighbors = 0
Ave neighs/atom = 0
Neighbor list builds = 8
Dangerous builds = 0

unfix forcetip

next i
jump SELF loop_load

variable f equal ${f}+${fincr}
variable f equal 0.55+${fincr}
variable f equal 0.55+0.01

# Set force variable

variable Fatom equal -v_f/(count(tip_fix)*1.602176565)
fix forcetip tip_fix aveforce 0.0 0.0 ${Fatom}
fix forcetip tip_fix aveforce 0.0 0.0 -0.00133917441847728
run 100
WARNING: One or more atoms are time integrated more than once (src/modify.cpp:296)
Per MPI rank memory allocation (min/avg/max) = 8.788 | 8.857 | 8.926 Mbytes
   Step          Temp          E_pair         E_mol          TotEng         Press     
     15549   198.09171     -28126.314      0             -27863.552     -3532.4588    
     15600   198.91112     -28127.049      0             -27863.2       -3826.4381    
     15649   195.53202     -28124.394      0             -27865.027     -3744.0311    
Loop time of 0.26226 on 8 procs for 100 steps with 10522 atoms

Performance: 32.944 ns/day, 0.728 hours/ns, 381.301 timesteps/s, 4.012 Matom-step/s
99.9% CPU use with 8 MPI tasks x 1 OpenMP threads

MPI task timing breakdown:
Section |  min time  |  avg time  |  max time  |%varavg| %total
---------------------------------------------------------------
Pair    | 0.00011912 | 0.10096    | 0.2179     |  31.8 | 38.50
Neigh   | 0.00086971 | 0.012304   | 0.024071   |  10.2 |  4.69
Comm    | 0.0098252  | 0.12766    | 0.24554    |  28.5 | 48.68
Output  | 6.4881e-05 | 7.7842e-05 | 0.00014159 |   0.0 |  0.03
Modify  | 0.0086832  | 0.019155   | 0.038873   |   9.1 |  7.30
Other   |            | 0.002096   |            |       |  0.80

Nlocal:        1315.25 ave        2643 max           0 min
Histogram: 4 0 0 0 0 0 0 0 0 4
Nghost:        1189.75 ave        2171 max         217 min
Histogram: 4 0 0 0 0 0 0 0 0 4
Neighs:              0 ave           0 max           0 min
Histogram: 8 0 0 0 0 0 0 0 0 0

Total # of neighbors = 0
Ave neighs/atom = 0
Neighbor list builds = 8
Dangerous builds = 0

unfix forcetip

next i
jump SELF loop_load

variable f equal ${f}+${fincr}
variable f equal 0.56+${fincr}
variable f equal 0.56+0.01

# Set force variable

variable Fatom equal -v_f/(count(tip_fix)*1.602176565)
fix forcetip tip_fix aveforce 0.0 0.0 ${Fatom}
fix forcetip tip_fix aveforce 0.0 0.0 -0.00136308824737866
run 100
WARNING: One or more atoms are time integrated more than once (src/modify.cpp:296)
Per MPI rank memory allocation (min/avg/max) = 8.788 | 8.857 | 8.926 Mbytes
   Step          Temp          E_pair         E_mol          TotEng         Press     
     15649   195.53202     -28124.394      0             -27865.027     -3704.6373    
     15700   196.74685     -28125.159      0             -27864.181     -3962.8068    
     15749   198.24281     -28126.845      0             -27863.882     -3945.0536    
Loop time of 0.250699 on 8 procs for 100 steps with 10522 atoms

Performance: 34.464 ns/day, 0.696 hours/ns, 398.884 timesteps/s, 4.197 Matom-step/s
99.0% CPU use with 8 MPI tasks x 1 OpenMP threads

MPI task timing breakdown:
Section |  min time  |  avg time  |  max time  |%varavg| %total
---------------------------------------------------------------
Pair    | 0.00011181 | 0.098708   | 0.20302    |  31.4 | 39.37
Neigh   | 0.00086525 | 0.012071   | 0.023273   |  10.1 |  4.81
Comm    | 0.0098263  | 0.11977    | 0.22962    |  30.1 | 47.78
Output  | 0.00010946 | 0.00066949 | 0.0045367  |   0.0 |  0.27
Modify  | 0.0084689  | 0.013602   | 0.023983   |   5.0 |  5.43
Other   |            | 0.005875   |            |       |  2.34

Nlocal:        1315.25 ave        2645 max           0 min
Histogram: 4 0 0 0 0 0 0 0 0 4
Nghost:        1190.12 ave        2173 max         217 min
Histogram: 4 0 0 0 0 0 0 0 0 4
Neighs:              0 ave           0 max           0 min
Histogram: 8 0 0 0 0 0 0 0 0 0

Total # of neighbors = 0
Ave neighs/atom = 0
Neighbor list builds = 8
Dangerous builds = 0

unfix forcetip

next i
jump SELF loop_load

variable f equal ${f}+${fincr}
variable f equal 0.57+${fincr}
variable f equal 0.57+0.01

# Set force variable

variable Fatom equal -v_f/(count(tip_fix)*1.602176565)
fix forcetip tip_fix aveforce 0.0 0.0 ${Fatom}
fix forcetip tip_fix aveforce 0.0 0.0 -0.00138700207628004
run 100
WARNING: One or more atoms are time integrated more than once (src/modify.cpp:296)
Per MPI rank memory allocation (min/avg/max) = 8.788 | 8.857 | 8.926 Mbytes
   Step          Temp          E_pair         E_mol          TotEng         Press     
     15749   198.24281     -28126.845      0             -27863.882     -3876.2423    
     15800   194.72913     -28121.942      0             -27863.64      -3880.3945    
     15849   196.12958     -28124.986      0             -27864.826     -3818.1047    
Loop time of 0.249869 on 8 procs for 100 steps with 10522 atoms

Performance: 34.578 ns/day, 0.694 hours/ns, 400.210 timesteps/s, 4.211 Matom-step/s
99.4% CPU use with 8 MPI tasks x 1 OpenMP threads

MPI task timing breakdown:
Section |  min time  |  avg time  |  max time  |%varavg| %total
---------------------------------------------------------------
Pair    | 0.00012384 | 0.10011    | 0.20386    |  31.6 | 40.06
Neigh   | 0.00086599 | 0.012833   | 0.02504    |  10.6 |  5.14
Comm    | 0.011186   | 0.12169    | 0.23217    |  30.6 | 48.70
Output  | 7.3738e-05 | 8.9608e-05 | 0.00016186 |   0.0 |  0.04
Modify  | 0.0083091  | 0.013178   | 0.021045   |   4.5 |  5.27
Other   |            | 0.001969   |            |       |  0.79

Nlocal:        1315.25 ave        2641 max           0 min
Histogram: 4 0 0 0 0 0 0 0 0 4
Nghost:        1190.62 ave        2166 max         217 min
Histogram: 4 0 0 0 0 0 0 0 0 4
Neighs:              0 ave           0 max           0 min
Histogram: 8 0 0 0 0 0 0 0 0 0

Total # of neighbors = 0
Ave neighs/atom = 0
Neighbor list builds = 8
Dangerous builds = 0

unfix forcetip

next i
jump SELF loop_load

variable f equal ${f}+${fincr}
variable f equal 0.58+${fincr}
variable f equal 0.58+0.01

# Set force variable

variable Fatom equal -v_f/(count(tip_fix)*1.602176565)
fix forcetip tip_fix aveforce 0.0 0.0 ${Fatom}
fix forcetip tip_fix aveforce 0.0 0.0 -0.00141091590518142
run 100
WARNING: One or more atoms are time integrated more than once (src/modify.cpp:296)
Per MPI rank memory allocation (min/avg/max) = 8.788 | 8.857 | 8.926 Mbytes
   Step          Temp          E_pair         E_mol          TotEng         Press     
     15849   196.12958     -28124.986      0             -27864.826     -3810.9267    
     15900   195.68895     -28126.042      0             -27866.467     -3938.8719    
     15949   195.45233     -28126.369      0             -27867.108     -3800.5423    
Loop time of 0.248997 on 8 procs for 100 steps with 10522 atoms

Performance: 34.699 ns/day, 0.692 hours/ns, 401.611 timesteps/s, 4.226 Matom-step/s
99.5% CPU use with 8 MPI tasks x 1 OpenMP threads

MPI task timing breakdown:
Section |  min time  |  avg time  |  max time  |%varavg| %total
---------------------------------------------------------------
Pair    | 0.00010644 | 0.099056   | 0.20269    |  31.4 | 39.78
Neigh   | 0.00075964 | 0.012108   | 0.02363    |  10.3 |  4.86
Comm    | 0.012986   | 0.12118    | 0.22972    |  29.8 | 48.67
Output  | 6.9922e-05 | 8.3686e-05 | 0.00015635 |   0.0 |  0.03
Modify  | 0.0083516  | 0.014585   | 0.027776   |   5.7 |  5.86
Other   |            | 0.001983   |            |       |  0.80

Nlocal:        1315.25 ave        2639 max           0 min
Histogram: 4 0 0 0 0 0 0 0 0 4
Nghost:        1191.25 ave        2168 max         217 min
Histogram: 4 0 0 0 0 0 0 0 0 4
Neighs:              0 ave           0 max           0 min
Histogram: 8 0 0 0 0 0 0 0 0 0

Total # of neighbors = 0
Ave neighs/atom = 0
Neighbor list builds = 8
Dangerous builds = 0

unfix forcetip

next i
jump SELF loop_load

variable f equal ${f}+${fincr}
variable f equal 0.59+${fincr}
variable f equal 0.59+0.01

# Set force variable

variable Fatom equal -v_f/(count(tip_fix)*1.602176565)
fix forcetip tip_fix aveforce 0.0 0.0 ${Fatom}
fix forcetip tip_fix aveforce 0.0 0.0 -0.0014348297340828
run 100
WARNING: One or more atoms are time integrated more than once (src/modify.cpp:296)
Per MPI rank memory allocation (min/avg/max) = 8.788 | 8.857 | 8.926 Mbytes
   Step          Temp          E_pair         E_mol          TotEng         Press     
     15949   195.45233     -28126.369      0             -27867.108     -3784.7049    
     16000   197.17979     -28127.015      0             -27865.462     -3752.3979    
     16049   198.23992     -28128.817      0             -27865.858     -3753.8332    
Loop time of 0.244801 on 8 procs for 100 steps with 10522 atoms

Performance: 35.294 ns/day, 0.680 hours/ns, 408.496 timesteps/s, 4.298 Matom-step/s
99.0% CPU use with 8 MPI tasks x 1 OpenMP threads

MPI task timing breakdown:
Section |  min time  |  avg time  |  max time  |%varavg| %total
---------------------------------------------------------------
Pair    | 0.00010187 | 0.098467   | 0.19949    |  31.4 | 40.22
Neigh   | 0.0011865  | 0.012208   | 0.023391   |   9.9 |  4.99
Comm    | 0.010757   | 0.11834    | 0.22614    |  30.4 | 48.34
Output  | 0.0014956  | 0.0016412  | 0.0018198  |   0.3 |  0.67
Modify  | 0.0078916  | 0.012245   | 0.021673   |   4.4 |  5.00
Other   |            | 0.001896   |            |       |  0.77

Nlocal:        1315.25 ave        2644 max           0 min
Histogram: 4 0 0 0 0 0 0 0 0 4
Nghost:        1188.75 ave        2170 max         217 min
Histogram: 4 0 0 0 0 0 0 0 0 4
Neighs:              0 ave           0 max           0 min
Histogram: 8 0 0 0 0 0 0 0 0 0

Total # of neighbors = 0
Ave neighs/atom = 0
Neighbor list builds = 8
Dangerous builds = 0

unfix forcetip

next i
jump SELF loop_load

variable f equal ${f}+${fincr}
variable f equal 0.6+${fincr}
variable f equal 0.6+0.01

# Set force variable

variable Fatom equal -v_f/(count(tip_fix)*1.602176565)
fix forcetip tip_fix aveforce 0.0 0.0 ${Fatom}
fix forcetip tip_fix aveforce 0.0 0.0 -0.00145874356298418
run 100
WARNING: One or more atoms are time integrated more than once (src/modify.cpp:296)
Per MPI rank memory allocation (min/avg/max) = 8.788 | 8.857 | 8.926 Mbytes
   Step          Temp          E_pair         E_mol          TotEng         Press     
     16049   198.23992     -28128.817      0             -27865.858     -3717.8828    
     16100   194.90371     -28123.606      0             -27865.073     -3657.6716    
     16149   196.85413     -28125.358      0             -27864.237     -3705.6088    
Loop time of 0.245467 on 8 procs for 100 steps with 10522 atoms

Performance: 35.198 ns/day, 0.682 hours/ns, 407.387 timesteps/s, 4.287 Matom-step/s
99.2% CPU use with 8 MPI tasks x 1 OpenMP threads

MPI task timing breakdown:
Section |  min time  |  avg time  |  max time  |%varavg| %total
---------------------------------------------------------------
Pair    | 0.00010665 | 0.098722   | 0.19924    |  31.4 | 40.22
Neigh   | 0.0010618  | 0.012231   | 0.024182   |  10.0 |  4.98
Comm    | 0.013066   | 0.11926    | 0.22537    |  30.3 | 48.59
Output  | 7.4099e-05 | 8.9663e-05 | 0.00017568 |   0.0 |  0.04
Modify  | 0.0083611  | 0.013259   | 0.019072   |   4.3 |  5.40
Other   |            | 0.001904   |            |       |  0.78

Nlocal:        1315.25 ave        2645 max           0 min
Histogram: 4 0 0 0 0 0 0 0 0 4
Nghost:        1186.25 ave        2162 max         217 min
Histogram: 4 0 0 0 0 0 0 0 0 4
Neighs:              0 ave           0 max           0 min
Histogram: 8 0 0 0 0 0 0 0 0 0

Total # of neighbors = 0
Ave neighs/atom = 0
Neighbor list builds = 8
Dangerous builds = 0

unfix forcetip

next i
jump SELF loop_load

variable f equal ${f}+${fincr}
variable f equal 0.61+${fincr}
variable f equal 0.61+0.01

# Set force variable

variable Fatom equal -v_f/(count(tip_fix)*1.602176565)
fix forcetip tip_fix aveforce 0.0 0.0 ${Fatom}
fix forcetip tip_fix aveforce 0.0 0.0 -0.00148265739188556
run 100
WARNING: One or more atoms are time integrated more than once (src/modify.cpp:296)
Per MPI rank memory allocation (min/avg/max) = 8.788 | 8.857 | 8.926 Mbytes
   Step          Temp          E_pair         E_mol          TotEng         Press     
     16149   196.85413     -28125.358      0             -27864.237     -3608.0691    
     16200   199.62874     -28130.204      0             -27865.402     -3719.8323    
     16249   195.28839     -28125.026      0             -27865.982     -4147.0485    
Loop time of 0.243552 on 8 procs for 100 steps with 10522 atoms

Performance: 35.475 ns/day, 0.677 hours/ns, 410.590 timesteps/s, 4.320 Matom-step/s
99.8% CPU use with 8 MPI tasks x 1 OpenMP threads

MPI task timing breakdown:
Section |  min time  |  avg time  |  max time  |%varavg| %total
---------------------------------------------------------------
Pair    | 0.00010172 | 0.098243   | 0.19767    |  31.3 | 40.34
Neigh   | 0.0011671  | 0.012297   | 0.024236   |  10.0 |  5.05
Comm    | 0.013197   | 0.11848    | 0.22382    |  30.3 | 48.65
Output  | 8.1815e-05 | 9.8544e-05 | 0.00019037 |   0.0 |  0.04
Modify  | 0.0080126  | 0.012628   | 0.018292   |   4.1 |  5.19
Other   |            | 0.001808   |            |       |  0.74

Nlocal:        1315.25 ave        2643 max           0 min
Histogram: 4 0 0 0 0 0 0 0 0 4
Nghost:        1186.38 ave        2161 max         217 min
Histogram: 4 0 0 0 0 0 0 0 0 4
Neighs:              0 ave           0 max           0 min
Histogram: 8 0 0 0 0 0 0 0 0 0

Total # of neighbors = 0
Ave neighs/atom = 0
Neighbor list builds = 8
Dangerous builds = 0

unfix forcetip

next i
jump SELF loop_load

variable f equal ${f}+${fincr}
variable f equal 0.62+${fincr}
variable f equal 0.62+0.01

# Set force variable

variable Fatom equal -v_f/(count(tip_fix)*1.602176565)
fix forcetip tip_fix aveforce 0.0 0.0 ${Fatom}
fix forcetip tip_fix aveforce 0.0 0.0 -0.00150657122078694
run 100
WARNING: One or more atoms are time integrated more than once (src/modify.cpp:296)
Per MPI rank memory allocation (min/avg/max) = 8.788 | 8.857 | 8.926 Mbytes
   Step          Temp          E_pair         E_mol          TotEng         Press     
     16249   195.28839     -28125.026      0             -27865.982     -4065.7562    
     16300   196.42892     -28125.468      0             -27864.912     -4036.8409    
     16349   198.16158     -28128.072      0             -27865.217     -3729.7091    
Loop time of 0.246497 on 8 procs for 100 steps with 10522 atoms

Performance: 35.051 ns/day, 0.685 hours/ns, 405.684 timesteps/s, 4.269 Matom-step/s
99.2% CPU use with 8 MPI tasks x 1 OpenMP threads

MPI task timing breakdown:
Section |  min time  |  avg time  |  max time  |%varavg| %total
---------------------------------------------------------------
Pair    | 0.0001153  | 0.09802    | 0.19979    |  31.3 | 39.77
Neigh   | 0.0010037  | 0.012227   | 0.023965   |  10.1 |  4.96
Comm    | 0.012918   | 0.11968    | 0.22675    |  29.8 | 48.55
Output  | 0.00011268 | 0.00013762 | 0.00027308 |   0.0 |  0.06
Modify  | 0.0086885  | 0.01432    | 0.023849   |   4.9 |  5.81
Other   |            | 0.002108   |            |       |  0.86

Nlocal:        1315.25 ave        2642 max           0 min
Histogram: 4 0 0 0 0 0 0 0 0 4
Nghost:         1186.5 ave        2161 max         217 min
Histogram: 4 0 0 0 0 0 0 0 0 4
Neighs:              0 ave           0 max           0 min
Histogram: 8 0 0 0 0 0 0 0 0 0

Total # of neighbors = 0
Ave neighs/atom = 0
Neighbor list builds = 8
Dangerous builds = 0

unfix forcetip

next i
jump SELF loop_load

variable f equal ${f}+${fincr}
variable f equal 0.63+${fincr}
variable f equal 0.63+0.01

# Set force variable

variable Fatom equal -v_f/(count(tip_fix)*1.602176565)
fix forcetip tip_fix aveforce 0.0 0.0 ${Fatom}
fix forcetip tip_fix aveforce 0.0 0.0 -0.00153048504968832
run 100
WARNING: One or more atoms are time integrated more than once (src/modify.cpp:296)
Per MPI rank memory allocation (min/avg/max) = 8.788 | 8.857 | 8.926 Mbytes
   Step          Temp          E_pair         E_mol          TotEng         Press     
     16349   198.16158     -28128.072      0             -27865.217     -3734.9045    
     16400   197.90645     -28126.864      0             -27864.348     -3783.2583    
     16449   198.34906     -28127.629      0             -27864.525     -3767.4523    
Loop time of 0.249281 on 8 procs for 100 steps with 10522 atoms

Performance: 34.660 ns/day, 0.692 hours/ns, 401.154 timesteps/s, 4.221 Matom-step/s
99.6% CPU use with 8 MPI tasks x 1 OpenMP threads

MPI task timing breakdown:
Section |  min time  |  avg time  |  max time  |%varavg| %total
---------------------------------------------------------------
Pair    | 0.00013372 | 0.099649   | 0.20392    |  31.5 | 39.97
Neigh   | 0.000795   | 0.011822   | 0.023335   |  10.1 |  4.74
Comm    | 0.01325    | 0.12135    | 0.22959    |  29.9 | 48.68
Output  | 7.0122e-05 | 8.469e-05  | 0.00015536 |   0.0 |  0.03
Modify  | 0.0082672  | 0.014391   | 0.024834   |   5.4 |  5.77
Other   |            | 0.001986   |            |       |  0.80

Nlocal:        1315.25 ave        2645 max           0 min
Histogram: 4 0 0 0 0 0 0 0 0 4
Nghost:        1190.38 ave        2176 max         217 min
Histogram: 4 0 0 0 0 0 0 0 0 4
Neighs:              0 ave           0 max           0 min
Histogram: 8 0 0 0 0 0 0 0 0 0

Total # of neighbors = 0
Ave neighs/atom = 0
Neighbor list builds = 8
Dangerous builds = 0

unfix forcetip

next i
jump SELF loop_load

variable f equal ${f}+${fincr}
variable f equal 0.64+${fincr}
variable f equal 0.64+0.01

# Set force variable

variable Fatom equal -v_f/(count(tip_fix)*1.602176565)
fix forcetip tip_fix aveforce 0.0 0.0 ${Fatom}
fix forcetip tip_fix aveforce 0.0 0.0 -0.0015543988785897
run 100
WARNING: One or more atoms are time integrated more than once (src/modify.cpp:296)
Per MPI rank memory allocation (min/avg/max) = 8.788 | 8.857 | 8.926 Mbytes
   Step          Temp          E_pair         E_mol          TotEng         Press     
     16449   198.34906     -28127.629      0             -27864.525     -3728.7519    
     16500   195.04624     -28122.507      0             -27863.785     -3953.7819    
     16549   197.39974     -28127.383      0             -27865.538     -3770.9172    
Loop time of 0.24963 on 8 procs for 100 steps with 10522 atoms

Performance: 34.611 ns/day, 0.693 hours/ns, 400.593 timesteps/s, 4.215 Matom-step/s
99.4% CPU use with 8 MPI tasks x 1 OpenMP threads

MPI task timing breakdown:
Section |  min time  |  avg time  |  max time  |%varavg| %total
---------------------------------------------------------------
Pair    | 9.8805e-05 | 0.099453   | 0.20268    |  31.5 | 39.84
Neigh   | 0.0005686  | 0.011635   | 0.022999   |  10.0 |  4.66
Comm    | 0.014511   | 0.12149    | 0.2284     |  29.6 | 48.67
Output  | 7.6414e-05 | 9.1928e-05 | 0.00017362 |   0.0 |  0.04
Modify  | 0.0084058  | 0.014968   | 0.02557    |   5.6 |  6.00
Other   |            | 0.001993   |            |       |  0.80

Nlocal:        1315.25 ave        2643 max           0 min
Histogram: 4 0 0 0 0 0 0 0 0 4
Nghost:           1190 ave        2171 max         217 min
Histogram: 4 0 0 0 0 0 0 0 0 4
Neighs:              0 ave           0 max           0 min
Histogram: 8 0 0 0 0 0 0 0 0 0

Total # of neighbors = 0
Ave neighs/atom = 0
Neighbor list builds = 8
Dangerous builds = 0

unfix forcetip

next i
jump SELF loop_load

variable f equal ${f}+${fincr}
variable f equal 0.65+${fincr}
variable f equal 0.65+0.01

# Set force variable

variable Fatom equal -v_f/(count(tip_fix)*1.602176565)
fix forcetip tip_fix aveforce 0.0 0.0 ${Fatom}
fix forcetip tip_fix aveforce 0.0 0.0 -0.00157831270749108
run 100
WARNING: One or more atoms are time integrated more than once (src/modify.cpp:296)
Per MPI rank memory allocation (min/avg/max) = 8.788 | 8.857 | 8.926 Mbytes
   Step          Temp          E_pair         E_mol          TotEng         Press     
     16549   197.39974     -28127.383      0             -27865.538     -3758.6699    
     16600   195.66578     -28126.361      0             -27866.816     -3766.4623    
     16649   196.17302     -28127.137      0             -27866.919     -3978.3632    
Loop time of 0.252617 on 8 procs for 100 steps with 10522 atoms

Performance: 34.202 ns/day, 0.702 hours/ns, 395.856 timesteps/s, 4.165 Matom-step/s
99.4% CPU use with 8 MPI tasks x 1 OpenMP threads

MPI task timing breakdown:
Section |  min time  |  avg time  |  max time  |%varavg| %total
---------------------------------------------------------------
Pair    | 8.6156e-05 | 0.099607   | 0.203      |  31.5 | 39.43
Neigh   | 0.0012131  | 0.012652   | 0.024303   |  10.1 |  5.01
Comm    | 0.015419   | 0.1227     | 0.22991    |  29.6 | 48.57
Output  | 7.474e-05  | 8.7275e-05 | 0.00015163 |   0.0 |  0.03
Modify  | 0.0085467  | 0.015589   | 0.029889   |   6.1 |  6.17
Other   |            | 0.00198    |            |       |  0.78

Nlocal:        1315.25 ave        2644 max           0 min
Histogram: 4 0 0 0 0 0 0 0 0 4
Nghost:        1189.25 ave        2175 max         217 min
Histogram: 4 0 0 0 0 0 0 0 0 4
Neighs:              0 ave           0 max           0 min
Histogram: 8 0 0 0 0 0 0 0 0 0

Total # of neighbors = 0
Ave neighs/atom = 0
Neighbor list builds = 8
Dangerous builds = 0

unfix forcetip

next i
jump SELF loop_load

variable f equal ${f}+${fincr}
variable f equal 0.66+${fincr}
variable f equal 0.66+0.01

# Set force variable

variable Fatom equal -v_f/(count(tip_fix)*1.602176565)
fix forcetip tip_fix aveforce 0.0 0.0 ${Fatom}
fix forcetip tip_fix aveforce 0.0 0.0 -0.00160222653639246
run 100
WARNING: One or more atoms are time integrated more than once (src/modify.cpp:296)
Per MPI rank memory allocation (min/avg/max) = 8.788 | 8.857 | 8.926 Mbytes
   Step          Temp          E_pair         E_mol          TotEng         Press     
     16649   196.17302     -28127.137      0             -27866.919     -3904.9278    
     16700   197.24223     -28128.523      0             -27866.887     -3901.0566    
     16749   196.53157     -28127.871      0             -27867.179     -3940.0745    
Loop time of 0.245932 on 8 procs for 100 steps with 10522 atoms

Performance: 35.132 ns/day, 0.683 hours/ns, 406.616 timesteps/s, 4.278 Matom-step/s
99.7% CPU use with 8 MPI tasks x 1 OpenMP threads

MPI task timing breakdown:
Section |  min time  |  avg time  |  max time  |%varavg| %total
---------------------------------------------------------------
Pair    | 8.5065e-05 | 0.099166   | 0.20336    |  31.5 | 40.32
Neigh   | 0.00072077 | 0.011623   | 0.022708   |  10.1 |  4.73
Comm    | 0.010545   | 0.1199     | 0.22919    |  30.1 | 48.75
Output  | 7.6573e-05 | 9.3011e-05 | 0.0001829  |   0.0 |  0.04
Modify  | 0.0079238  | 0.013329   | 0.021243   |   5.0 |  5.42
Other   |            | 0.001825   |            |       |  0.74

Nlocal:        1315.25 ave        2644 max           0 min
Histogram: 4 0 0 0 0 0 0 0 0 4
Nghost:        1187.25 ave        2163 max         217 min
Histogram: 4 0 0 0 0 0 0 0 0 4
Neighs:              0 ave           0 max           0 min
Histogram: 8 0 0 0 0 0 0 0 0 0

Total # of neighbors = 0
Ave neighs/atom = 0
Neighbor list builds = 8
Dangerous builds = 0

unfix forcetip

next i
jump SELF loop_load

variable f equal ${f}+${fincr}
variable f equal 0.67+${fincr}
variable f equal 0.67+0.01

# Set force variable

variable Fatom equal -v_f/(count(tip_fix)*1.602176565)
fix forcetip tip_fix aveforce 0.0 0.0 ${Fatom}
fix forcetip tip_fix aveforce 0.0 0.0 -0.00162614036529384
run 100
WARNING: One or more atoms are time integrated more than once (src/modify.cpp:296)
Per MPI rank memory allocation (min/avg/max) = 8.788 | 8.857 | 8.926 Mbytes
   Step          Temp          E_pair         E_mol          TotEng         Press     
     16749   196.53157     -28127.871      0             -27867.179     -3909.381     
     16800   196.48298     -28128.319      0             -27867.691     -3623.2406    
     16849   194.8142      -28126.006      0             -27867.591     -3844.5455    
Loop time of 0.249674 on 8 procs for 100 steps with 10522 atoms

Performance: 34.605 ns/day, 0.694 hours/ns, 400.523 timesteps/s, 4.214 Matom-step/s
99.5% CPU use with 8 MPI tasks x 1 OpenMP threads

MPI task timing breakdown:
Section |  min time  |  avg time  |  max time  |%varavg| %total
---------------------------------------------------------------
Pair    | 0.00012157 | 0.099177   | 0.20264    |  31.5 | 39.72
Neigh   | 0.00068275 | 0.011774   | 0.023246   |  10.2 |  4.72
Comm    | 0.013383   | 0.12146    | 0.22952    |  29.7 | 48.65
Output  | 7.2767e-05 | 8.6991e-05 | 0.00015898 |   0.0 |  0.03
Modify  | 0.0086413  | 0.015084   | 0.026094   |   5.6 |  6.04
Other   |            | 0.002095   |            |       |  0.84

Nlocal:        1315.25 ave        2641 max           0 min
Histogram: 4 0 0 0 0 0 0 0 0 4
Nghost:        1182.88 ave        2159 max         212 min
Histogram: 4 0 0 0 0 0 0 0 0 4
Neighs:              0 ave           0 max           0 min
Histogram: 8 0 0 0 0 0 0 0 0 0

Total # of neighbors = 0
Ave neighs/atom = 0
Neighbor list builds = 8
Dangerous builds = 0

unfix forcetip

next i
jump SELF loop_load

variable f equal ${f}+${fincr}
variable f equal 0.68+${fincr}
variable f equal 0.68+0.01

# Set force variable

variable Fatom equal -v_f/(count(tip_fix)*1.602176565)
fix forcetip tip_fix aveforce 0.0 0.0 ${Fatom}
fix forcetip tip_fix aveforce 0.0 0.0 -0.00165005419419522
run 100
WARNING: One or more atoms are time integrated more than once (src/modify.cpp:296)
Per MPI rank memory allocation (min/avg/max) = 8.788 | 8.857 | 8.926 Mbytes
   Step          Temp          E_pair         E_mol          TotEng         Press     
     16849   194.8142      -28126.006      0             -27867.591     -3772.2949    
     16900   196.85542     -28128.707      0             -27867.585     -3637.4234    
     16949   196.34985     -28127.62       0             -27867.168     -3920.5868    
Loop time of 0.262396 on 8 procs for 100 steps with 10522 atoms

Performance: 32.927 ns/day, 0.729 hours/ns, 381.104 timesteps/s, 4.010 Matom-step/s
99.7% CPU use with 8 MPI tasks x 1 OpenMP threads

MPI task timing breakdown:
Section |  min time  |  avg time  |  max time  |%varavg| %total
---------------------------------------------------------------
Pair    | 0.00013508 | 0.10313    | 0.21022    |  32.1 | 39.30
Neigh   | 0.0009185  | 0.012054   | 0.023469   |  10.0 |  4.59
Comm    | 0.018516   | 0.12749    | 0.23662    |  29.5 | 48.59
Output  | 7.6374e-05 | 8.9744e-05 | 0.00015677 |   0.0 |  0.03
Modify  | 0.0090747  | 0.017496   | 0.030977   |   6.6 |  6.67
Other   |            | 0.002132   |            |       |  0.81

Nlocal:        1315.25 ave        2640 max           0 min
Histogram: 4 0 0 0 0 0 0 0 0 4
Nghost:        1176.25 ave        2155 max         203 min
Histogram: 4 0 0 0 0 0 0 0 0 4
Neighs:              0 ave           0 max           0 min
Histogram: 8 0 0 0 0 0 0 0 0 0

Total # of neighbors = 0
Ave neighs/atom = 0
Neighbor list builds = 8
Dangerous builds = 0

unfix forcetip

next i
jump SELF loop_load

variable f equal ${f}+${fincr}
variable f equal 0.69+${fincr}
variable f equal 0.69+0.01

# Set force variable

variable Fatom equal -v_f/(count(tip_fix)*1.602176565)
fix forcetip tip_fix aveforce 0.0 0.0 ${Fatom}
fix forcetip tip_fix aveforce 0.0 0.0 -0.0016739680230966
run 100
WARNING: One or more atoms are time integrated more than once (src/modify.cpp:296)
Per MPI rank memory allocation (min/avg/max) = 8.788 | 8.857 | 8.926 Mbytes
   Step          Temp          E_pair         E_mol          TotEng         Press     
     16949   196.34985     -28127.62       0             -27867.168     -3865.6887    
     17000   196.39288     -28128.828      0             -27868.319     -3654.0794    
     17049   194.67756     -28125.734      0             -27867.5       -4140.7274    
Loop time of 0.265756 on 8 procs for 100 steps with 10522 atoms

Performance: 32.511 ns/day, 0.738 hours/ns, 376.285 timesteps/s, 3.959 Matom-step/s
99.2% CPU use with 8 MPI tasks x 1 OpenMP threads

MPI task timing breakdown:
Section |  min time  |  avg time  |  max time  |%varavg| %total
---------------------------------------------------------------
Pair    | 0.00019361 | 0.10361    | 0.21119    |  32.1 | 38.99
Neigh   | 0.00044082 | 0.011863   | 0.023412   |  10.4 |  4.46
Comm    | 0.018354   | 0.12872    | 0.239      |  29.6 | 48.43
Output  | 0.001349   | 0.0014569  | 0.001574   |   0.2 |  0.55
Modify  | 0.0093332  | 0.01773    | 0.028322   |   6.4 |  6.67
Other   |            | 0.002385   |            |       |  0.90

Nlocal:        1315.25 ave        2641 max           0 min
Histogram: 4 0 0 0 0 0 0 0 0 4
Nghost:        1171.25 ave        2166 max         188 min
Histogram: 4 0 0 0 0 0 0 0 0 4
Neighs:              0 ave           0 max           0 min
Histogram: 8 0 0 0 0 0 0 0 0 0

Total # of neighbors = 0
Ave neighs/atom = 0
Neighbor list builds = 8
Dangerous builds = 0

unfix forcetip

next i
jump SELF loop_load

variable f equal ${f}+${fincr}
variable f equal 0.7+${fincr}
variable f equal 0.7+0.01

# Set force variable

variable Fatom equal -v_f/(count(tip_fix)*1.602176565)
fix forcetip tip_fix aveforce 0.0 0.0 ${Fatom}
fix forcetip tip_fix aveforce 0.0 0.0 -0.00169788185199798
run 100
WARNING: One or more atoms are time integrated more than once (src/modify.cpp:296)
Per MPI rank memory allocation (min/avg/max) = 8.788 | 8.857 | 8.926 Mbytes
   Step          Temp          E_pair         E_mol          TotEng         Press     
     17049   194.67756     -28125.734      0             -27867.5       -4055.8316    
     17100   196.47038     -28127.544      0             -27866.932     -3882.6332    
     17149   195.13897     -28123.719      0             -27864.874     -3962.0403    
Loop time of 0.299252 on 8 procs for 100 steps with 10522 atoms

Performance: 28.872 ns/day, 0.831 hours/ns, 334.167 timesteps/s, 3.516 Matom-step/s
99.1% CPU use with 8 MPI tasks x 1 OpenMP threads

MPI task timing breakdown:
Section |  min time  |  avg time  |  max time  |%varavg| %total
---------------------------------------------------------------
Pair    | 0.00034018 | 0.11923    | 0.24459    |  34.4 | 39.84
Neigh   | 0.00058594 | 0.012717   | 0.025372   |  10.8 |  4.25
Comm    | 0.016901   | 0.14581    | 0.2744     |  32.1 | 48.73
Output  | 6.5313e-05 | 8.1887e-05 | 0.00016163 |   0.0 |  0.03
Modify  | 0.010675   | 0.018847   | 0.037348   |   6.7 |  6.30
Other   |            | 0.002569   |            |       |  0.86

Nlocal:        1315.25 ave        2644 max           0 min
Histogram: 4 0 0 0 0 0 0 0 0 4
Nghost:           1169 ave        2167 max         184 min
Histogram: 4 0 0 0 0 0 0 0 0 4
Neighs:              0 ave           0 max           0 min
Histogram: 8 0 0 0 0 0 0 0 0 0

Total # of neighbors = 0
Ave neighs/atom = 0
Neighbor list builds = 8
Dangerous builds = 0

unfix forcetip

next i
jump SELF loop_load

variable f equal ${f}+${fincr}
variable f equal 0.71+${fincr}
variable f equal 0.71+0.01

# Set force variable

variable Fatom equal -v_f/(count(tip_fix)*1.602176565)
fix forcetip tip_fix aveforce 0.0 0.0 ${Fatom}
fix forcetip tip_fix aveforce 0.0 0.0 -0.00172179568089936
run 100
WARNING: One or more atoms are time integrated more than once (src/modify.cpp:296)
Per MPI rank memory allocation (min/avg/max) = 8.788 | 8.857 | 8.926 Mbytes
   Step          Temp          E_pair         E_mol          TotEng         Press     
     17149   195.13897     -28123.719      0             -27864.874     -3967.0053    
     17200   198.11766     -28128.432      0             -27865.635     -3617.3253    
     17249   196.59733     -28127.148      0             -27866.368     -3661.0256    
Loop time of 0.263202 on 8 procs for 100 steps with 10522 atoms

Performance: 32.827 ns/day, 0.731 hours/ns, 379.936 timesteps/s, 3.998 Matom-step/s
99.2% CPU use with 8 MPI tasks x 1 OpenMP threads

MPI task timing breakdown:
Section |  min time  |  avg time  |  max time  |%varavg| %total
---------------------------------------------------------------
Pair    | 0.00015047 | 0.10309    | 0.21416    |  32.1 | 39.17
Neigh   | 0.00057592 | 0.01189    | 0.023374   |  10.3 |  4.52
Comm    | 0.014477   | 0.12803    | 0.24163    |  29.5 | 48.64
Output  | 0.00012119 | 0.00015508 | 0.00033394 |   0.0 |  0.06
Modify  | 0.009145   | 0.017711   | 0.03246    |   7.0 |  6.73
Other   |            | 0.002332   |            |       |  0.89

Nlocal:        1315.25 ave        2643 max           0 min
Histogram: 4 0 0 0 0 0 0 0 0 4
Nghost:         1165.5 ave        2154 max         184 min
Histogram: 4 0 0 0 0 0 0 0 0 4
Neighs:              0 ave           0 max           0 min
Histogram: 8 0 0 0 0 0 0 0 0 0

Total # of neighbors = 0
Ave neighs/atom = 0
Neighbor list builds = 8
Dangerous builds = 0

unfix forcetip

next i
jump SELF loop_load

variable f equal ${f}+${fincr}
variable f equal 0.72+${fincr}
variable f equal 0.72+0.01

# Set force variable

variable Fatom equal -v_f/(count(tip_fix)*1.602176565)
fix forcetip tip_fix aveforce 0.0 0.0 ${Fatom}
fix forcetip tip_fix aveforce 0.0 0.0 -0.00174570950980074
run 100
WARNING: One or more atoms are time integrated more than once (src/modify.cpp:296)
Per MPI rank memory allocation (min/avg/max) = 8.788 | 8.857 | 8.926 Mbytes
   Step          Temp          E_pair         E_mol          TotEng         Press     
     17249   196.59733     -28127.148      0             -27866.368     -3687.1142    
     17300   196.43789     -28128.541      0             -27867.972     -3840.6591    
     17349   196.38952     -28127.295      0             -27866.791     -4096.9543    
Loop time of 0.272202 on 8 procs for 100 steps with 10522 atoms

Performance: 31.741 ns/day, 0.756 hours/ns, 367.374 timesteps/s, 3.866 Matom-step/s
99.4% CPU use with 8 MPI tasks x 1 OpenMP threads

MPI task timing breakdown:
Section |  min time  |  avg time  |  max time  |%varavg| %total
---------------------------------------------------------------
Pair    | 0.00021337 | 0.10453    | 0.21397    |  32.3 | 38.40
Neigh   | 0.00086239 | 0.012867   | 0.025171   |  10.6 |  4.73
Comm    | 0.020796   | 0.13196    | 0.24326    |  29.2 | 48.48
Output  | 6.7927e-05 | 8.1811e-05 | 0.00014454 |   0.0 |  0.03
Modify  | 0.010184   | 0.020161   | 0.037275   |   7.4 |  7.41
Other   |            | 0.002598   |            |       |  0.95

Nlocal:        1315.25 ave        2645 max           0 min
Histogram: 4 0 0 0 0 0 0 0 0 4
Nghost:           1167 ave        2162 max         184 min
Histogram: 4 0 0 0 0 0 0 0 0 4
Neighs:              0 ave           0 max           0 min
Histogram: 8 0 0 0 0 0 0 0 0 0

Total # of neighbors = 0
Ave neighs/atom = 0
Neighbor list builds = 8
Dangerous builds = 0

unfix forcetip

next i
jump SELF loop_load

variable f equal ${f}+${fincr}
variable f equal 0.73+${fincr}
variable f equal 0.73+0.01

# Set force variable

variable Fatom equal -v_f/(count(tip_fix)*1.602176565)
fix forcetip tip_fix aveforce 0.0 0.0 ${Fatom}
fix forcetip tip_fix aveforce 0.0 0.0 -0.00176962333870212
run 100
WARNING: One or more atoms are time integrated more than once (src/modify.cpp:296)
Per MPI rank memory allocation (min/avg/max) = 8.788 | 8.857 | 8.926 Mbytes
   Step          Temp          E_pair         E_mol          TotEng         Press     
     17349   196.38952     -28127.295      0             -27866.791     -3967.1269    
     17400   195.01673     -28125.541      0             -27866.857     -3731.6423    
     17449   197.81724     -28127.986      0             -27865.588     -3742.2364    
Loop time of 0.256553 on 8 procs for 100 steps with 10522 atoms

Performance: 33.677 ns/day, 0.713 hours/ns, 389.782 timesteps/s, 4.101 Matom-step/s
99.3% CPU use with 8 MPI tasks x 1 OpenMP threads

MPI task timing breakdown:
Section |  min time  |  avg time  |  max time  |%varavg| %total
---------------------------------------------------------------
Pair    | 0.0001275  | 0.10079    | 0.21007    |  31.7 | 39.29
Neigh   | 0.001161   | 0.012346   | 0.024144   |   9.9 |  4.81
Comm    | 0.012558   | 0.12478    | 0.23731    |  29.3 | 48.64
Output  | 7.1825e-05 | 8.6484e-05 | 0.00016409 |   0.0 |  0.03
Modify  | 0.0082733  | 0.016522   | 0.034714   |   7.4 |  6.44
Other   |            | 0.002023   |            |       |  0.79

Nlocal:        1315.25 ave        2643 max           0 min
Histogram: 4 0 0 0 0 0 0 0 0 4
Nghost:        1165.62 ave        2156 max         184 min
Histogram: 4 0 0 0 0 0 0 0 0 4
Neighs:              0 ave           0 max           0 min
Histogram: 8 0 0 0 0 0 0 0 0 0

Total # of neighbors = 0
Ave neighs/atom = 0
Neighbor list builds = 8
Dangerous builds = 0

unfix forcetip

next i
jump SELF loop_load

variable f equal ${f}+${fincr}
variable f equal 0.74+${fincr}
variable f equal 0.74+0.01

# Set force variable

variable Fatom equal -v_f/(count(tip_fix)*1.602176565)
fix forcetip tip_fix aveforce 0.0 0.0 ${Fatom}
fix forcetip tip_fix aveforce 0.0 0.0 -0.0017935371676035
run 100
WARNING: One or more atoms are time integrated more than once (src/modify.cpp:296)
Per MPI rank memory allocation (min/avg/max) = 8.788 | 8.857 | 8.926 Mbytes
   Step          Temp          E_pair         E_mol          TotEng         Press     
     17449   197.81724     -28127.986      0             -27865.588     -3691.1834    
     17500   199.28658     -28130.493      0             -27866.146     -3931.6558    
     17549   197.68069     -28127.311      0             -27865.094     -3760.6724    
Loop time of 0.253103 on 8 procs for 100 steps with 10522 atoms

Performance: 34.136 ns/day, 0.703 hours/ns, 395.097 timesteps/s, 4.157 Matom-step/s
98.8% CPU use with 8 MPI tasks x 1 OpenMP threads

MPI task timing breakdown:
Section |  min time  |  avg time  |  max time  |%varavg| %total
---------------------------------------------------------------
Pair    | 0.00012784 | 0.10095    | 0.20491    |  31.7 | 39.89
Neigh   | 0.00079994 | 0.011632   | 0.022966   |  10.0 |  4.60
Comm    | 0.014909   | 0.12318    | 0.23167    |  29.8 | 48.67
Output  | 7.3497e-05 | 8.711e-05  | 0.00016138 |   0.0 |  0.03
Modify  | 0.008443   | 0.015183   | 0.027964   |   5.8 |  6.00
Other   |            | 0.002068   |            |       |  0.82

Nlocal:        1315.25 ave        2641 max           0 min
Histogram: 4 0 0 0 0 0 0 0 0 4
Nghost:        1165.12 ave        2161 max         184 min
Histogram: 4 0 0 0 0 0 0 0 0 4
Neighs:              0 ave           0 max           0 min
Histogram: 8 0 0 0 0 0 0 0 0 0

Total # of neighbors = 0
Ave neighs/atom = 0
Neighbor list builds = 8
Dangerous builds = 0

unfix forcetip

next i
jump SELF loop_load

variable f equal ${f}+${fincr}
variable f equal 0.75+${fincr}
variable f equal 0.75+0.01

# Set force variable

variable Fatom equal -v_f/(count(tip_fix)*1.602176565)
fix forcetip tip_fix aveforce 0.0 0.0 ${Fatom}
fix forcetip tip_fix aveforce 0.0 0.0 -0.00181745099650488
run 100
WARNING: One or more atoms are time integrated more than once (src/modify.cpp:296)
Per MPI rank memory allocation (min/avg/max) = 8.788 | 8.857 | 8.926 Mbytes
   Step          Temp          E_pair         E_mol          TotEng         Press     
     17549   197.68069     -28127.311      0             -27865.094     -3774.0777    
     17600   198.15556     -28126.676      0             -27863.829     -3961.4654    
     17649   198.36249     -28124.42       0             -27861.298     -3680.7729    
Loop time of 0.256451 on 8 procs for 100 steps with 10522 atoms

Performance: 33.691 ns/day, 0.712 hours/ns, 389.939 timesteps/s, 4.103 Matom-step/s
99.7% CPU use with 8 MPI tasks x 1 OpenMP threads

MPI task timing breakdown:
Section |  min time  |  avg time  |  max time  |%varavg| %total
---------------------------------------------------------------
Pair    | 0.00013269 | 0.099763   | 0.20698    |  31.6 | 38.90
Neigh   | 0.00093609 | 0.011987   | 0.023939   |  10.1 |  4.67
Comm    | 0.016044   | 0.12478    | 0.2336     |  28.8 | 48.66
Output  | 7.1955e-05 | 8.7397e-05 | 0.00015695 |   0.0 |  0.03
Modify  | 0.0085477  | 0.017666   | 0.038717   |   7.9 |  6.89
Other   |            | 0.002167   |            |       |  0.85

Nlocal:        1315.25 ave        2645 max           0 min
Histogram: 4 0 0 0 0 0 0 0 0 4
Nghost:        1165.38 ave        2163 max         181 min
Histogram: 4 0 0 0 0 0 0 0 0 4
Neighs:              0 ave           0 max           0 min
Histogram: 8 0 0 0 0 0 0 0 0 0

Total # of neighbors = 0
Ave neighs/atom = 0
Neighbor list builds = 8
Dangerous builds = 0

unfix forcetip

next i
jump SELF loop_load

variable f equal ${f}+${fincr}
variable f equal 0.76+${fincr}
variable f equal 0.76+0.01

# Set force variable

variable Fatom equal -v_f/(count(tip_fix)*1.602176565)
fix forcetip tip_fix aveforce 0.0 0.0 ${Fatom}
fix forcetip tip_fix aveforce 0.0 0.0 -0.00184136482540626
run 100
WARNING: One or more atoms are time integrated more than once (src/modify.cpp:296)
Per MPI rank memory allocation (min/avg/max) = 8.788 | 8.857 | 8.926 Mbytes
   Step          Temp          E_pair         E_mol          TotEng         Press     
     17649   198.36249     -28124.42       0             -27861.298     -3731.0352    
     17700   197.35697     -28124.752      0             -27862.964     -3824.6026    
     17749   196.72502     -28122.639      0             -27861.69      -3643.0952    
Loop time of 0.252998 on 8 procs for 100 steps with 10522 atoms

Performance: 34.150 ns/day, 0.703 hours/ns, 395.260 timesteps/s, 4.159 Matom-step/s
99.5% CPU use with 8 MPI tasks x 1 OpenMP threads

MPI task timing breakdown:
Section |  min time  |  avg time  |  max time  |%varavg| %total
---------------------------------------------------------------
Pair    | 0.00011507 | 0.09938    | 0.20381    |  31.5 | 39.28
Neigh   | 0.00086713 | 0.012415   | 0.024414   |  10.2 |  4.91
Comm    | 0.015199   | 0.12311    | 0.23091    |  29.3 | 48.66
Output  | 7.2035e-05 | 8.5651e-05 | 0.00015593 |   0.0 |  0.03
Modify  | 0.0083745  | 0.015998   | 0.0315     |   6.7 |  6.32
Other   |            | 0.002005   |            |       |  0.79

Nlocal:        1315.25 ave        2642 max           0 min
Histogram: 4 0 0 0 0 0 0 0 0 4
Nghost:           1165 ave        2160 max         181 min
Histogram: 4 0 0 0 0 0 0 0 0 4
Neighs:              0 ave           0 max           0 min
Histogram: 8 0 0 0 0 0 0 0 0 0

Total # of neighbors = 0
Ave neighs/atom = 0
Neighbor list builds = 8
Dangerous builds = 0

unfix forcetip

next i
jump SELF loop_load

variable f equal ${f}+${fincr}
variable f equal 0.77+${fincr}
variable f equal 0.77+0.01

# Set force variable

variable Fatom equal -v_f/(count(tip_fix)*1.602176565)
fix forcetip tip_fix aveforce 0.0 0.0 ${Fatom}
fix forcetip tip_fix aveforce 0.0 0.0 -0.00186527865430764
run 100
WARNING: One or more atoms are time integrated more than once (src/modify.cpp:296)
Per MPI rank memory allocation (min/avg/max) = 8.788 | 8.857 | 8.926 Mbytes
   Step          Temp          E_pair         E_mol          TotEng         Press     
     17749   196.72502     -28122.639      0             -27861.69      -3619.3183    
     17800   198.55253     -28124.249      0             -27860.876     -3992.4182    
     17849   200.00511     -28125.683      0             -27860.383     -3987.741     
Loop time of 0.246891 on 8 procs for 100 steps with 10522 atoms

Performance: 34.995 ns/day, 0.686 hours/ns, 405.037 timesteps/s, 4.262 Matom-step/s
99.6% CPU use with 8 MPI tasks x 1 OpenMP threads

MPI task timing breakdown:
Section |  min time  |  avg time  |  max time  |%varavg| %total
---------------------------------------------------------------
Pair    | 0.00010794 | 0.098773   | 0.20125    |  31.4 | 40.01
Neigh   | 0.00091578 | 0.012117   | 0.023543   |   9.9 |  4.91
Comm    | 0.012433   | 0.12004    | 0.22789    |  29.9 | 48.62
Output  | 9.084e-05  | 0.00010491 | 0.00018061 |   0.0 |  0.04
Modify  | 0.0082272  | 0.013937   | 0.026836   |   5.5 |  5.64
Other   |            | 0.001918   |            |       |  0.78

Nlocal:        1315.25 ave        2642 max           0 min
Histogram: 4 0 0 0 0 0 0 0 0 4
Nghost:        1161.62 ave        2147 max         181 min
Histogram: 4 0 0 0 0 0 0 0 0 4
Neighs:              0 ave           0 max           0 min
Histogram: 8 0 0 0 0 0 0 0 0 0

Total # of neighbors = 0
Ave neighs/atom = 0
Neighbor list builds = 8
Dangerous builds = 0

unfix forcetip

next i
jump SELF loop_load

variable f equal ${f}+${fincr}
variable f equal 0.78+${fincr}
variable f equal 0.78+0.01

# Set force variable

variable Fatom equal -v_f/(count(tip_fix)*1.602176565)
fix forcetip tip_fix aveforce 0.0 0.0 ${Fatom}
fix forcetip tip_fix aveforce 0.0 0.0 -0.00188919248320902
run 100
WARNING: One or more atoms are time integrated more than once (src/modify.cpp:296)
Per MPI rank memory allocation (min/avg/max) = 8.788 | 8.857 | 8.926 Mbytes
   Step          Temp          E_pair         E_mol          TotEng         Press     
     17849   200.00511     -28125.683      0             -27860.383     -3880.5136    
     17900   197.35486     -28123.873      0             -27862.088     -3795.8886    
     17949   201.35741     -28127.525      0             -27860.431     -3917.0601    
Loop time of 0.248732 on 8 procs for 100 steps with 10522 atoms

Performance: 34.736 ns/day, 0.691 hours/ns, 402.039 timesteps/s, 4.230 Matom-step/s
99.1% CPU use with 8 MPI tasks x 1 OpenMP threads

MPI task timing breakdown:
Section |  min time  |  avg time  |  max time  |%varavg| %total
---------------------------------------------------------------
Pair    | 0.00011202 | 0.098703   | 0.20197    |  31.4 | 39.68
Neigh   | 0.00065323 | 0.011827   | 0.023852   |  10.2 |  4.75
Comm    | 0.013973   | 0.12123    | 0.2285     |  29.4 | 48.74
Output  | 9.1702e-05 | 0.00010641 | 0.00018358 |   0.0 |  0.04
Modify  | 0.0079844  | 0.014945   | 0.02763    |   6.1 |  6.01
Other   |            | 0.001923   |            |       |  0.77

Nlocal:        1315.25 ave        2647 max           0 min
Histogram: 4 0 0 0 0 0 0 0 0 4
Nghost:        1159.38 ave        2142 max         181 min
Histogram: 4 0 0 0 0 0 0 0 0 4
Neighs:              0 ave           0 max           0 min
Histogram: 8 0 0 0 0 0 0 0 0 0

Total # of neighbors = 0
Ave neighs/atom = 0
Neighbor list builds = 8
Dangerous builds = 0

unfix forcetip

next i
jump SELF loop_load

variable f equal ${f}+${fincr}
variable f equal 0.79+${fincr}
variable f equal 0.79+0.01

# Set force variable

variable Fatom equal -v_f/(count(tip_fix)*1.602176565)
fix forcetip tip_fix aveforce 0.0 0.0 ${Fatom}
fix forcetip tip_fix aveforce 0.0 0.0 -0.0019131063121104
run 100
WARNING: One or more atoms are time integrated more than once (src/modify.cpp:296)
Per MPI rank memory allocation (min/avg/max) = 8.788 | 8.857 | 8.926 Mbytes
   Step          Temp          E_pair         E_mol          TotEng         Press     
     17949   201.35741     -28127.525      0             -27860.431     -3771.2716    
     18000   200.4339      -28126.84       0             -27860.971     -3891.3484    
     18049   199.69526     -28125.372      0             -27860.482     -3539.8761    
Loop time of 0.259583 on 8 procs for 100 steps with 10522 atoms

Performance: 33.284 ns/day, 0.721 hours/ns, 385.234 timesteps/s, 4.053 Matom-step/s
98.7% CPU use with 8 MPI tasks x 1 OpenMP threads

MPI task timing breakdown:
Section |  min time  |  avg time  |  max time  |%varavg| %total
---------------------------------------------------------------
Pair    | 0.00010519 | 0.10087    | 0.20644    |  31.7 | 38.86
Neigh   | 0.00081162 | 0.012289   | 0.024546   |  10.2 |  4.73
Comm    | 0.016725   | 0.12566    | 0.23474    |  29.2 | 48.41
Output  | 0.001363   | 0.0014887  | 0.0016444  |   0.2 |  0.57
Modify  | 0.0085593  | 0.017075   | 0.03146    |   6.9 |  6.58
Other   |            | 0.002207   |            |       |  0.85

Nlocal:        1315.25 ave        2644 max           0 min
Histogram: 4 0 0 0 0 0 0 0 0 4
Nghost:        1157.38 ave        2143 max         178 min
Histogram: 4 0 0 0 0 0 0 0 0 4
Neighs:              0 ave           0 max           0 min
Histogram: 8 0 0 0 0 0 0 0 0 0

Total # of neighbors = 0
Ave neighs/atom = 0
Neighbor list builds = 8
Dangerous builds = 0

unfix forcetip

next i
jump SELF loop_load

variable f equal ${f}+${fincr}
variable f equal 0.8+${fincr}
variable f equal 0.8+0.01

# Set force variable

variable Fatom equal -v_f/(count(tip_fix)*1.602176565)
fix forcetip tip_fix aveforce 0.0 0.0 ${Fatom}
fix forcetip tip_fix aveforce 0.0 0.0 -0.00193702014101178
run 100
WARNING: One or more atoms are time integrated more than once (src/modify.cpp:296)
Per MPI rank memory allocation (min/avg/max) = 8.788 | 8.857 | 8.926 Mbytes
   Step          Temp          E_pair         E_mol          TotEng         Press     
     18049   199.69526     -28125.372      0             -27860.482     -3626.8606    
     18100   200.45176     -28128.195      0             -27862.302     -3697.6934    
     18149   198.33803     -28126.203      0             -27863.114     -3847.6546    
Loop time of 0.307214 on 8 procs for 100 steps with 10522 atoms

Performance: 28.124 ns/day, 0.853 hours/ns, 325.506 timesteps/s, 3.425 Matom-step/s
98.2% CPU use with 8 MPI tasks x 1 OpenMP threads

MPI task timing breakdown:
Section |  min time  |  avg time  |  max time  |%varavg| %total
---------------------------------------------------------------
Pair    | 0.00027069 | 0.11327    | 0.23985    |  33.6 | 36.87
Neigh   | 0.00067268 | 0.012945   | 0.02696    |  10.7 |  4.21
Comm    | 0.027219   | 0.14917    | 0.27139    |  27.7 | 48.56
Output  | 0.00012144 | 0.00015079 | 0.0002856  |   0.0 |  0.05
Modify  | 0.010828   | 0.029079   | 0.060162   |  11.5 |  9.47
Other   |            | 0.002592   |            |       |  0.84

Nlocal:        1315.25 ave        2643 max           0 min
Histogram: 4 0 0 0 0 0 0 0 0 4
Nghost:           1148 ave        2152 max         147 min
Histogram: 4 0 0 0 0 0 0 0 0 4
Neighs:              0 ave           0 max           0 min
Histogram: 8 0 0 0 0 0 0 0 0 0

Total # of neighbors = 0
Ave neighs/atom = 0
Neighbor list builds = 8
Dangerous builds = 0

unfix forcetip

next i
jump SELF loop_load

variable f equal ${f}+${fincr}
variable f equal 0.81+${fincr}
variable f equal 0.81+0.01

# Set force variable

variable Fatom equal -v_f/(count(tip_fix)*1.602176565)
fix forcetip tip_fix aveforce 0.0 0.0 ${Fatom}
fix forcetip tip_fix aveforce 0.0 0.0 -0.00196093396991316
run 100
WARNING: One or more atoms are time integrated more than once (src/modify.cpp:296)
Per MPI rank memory allocation (min/avg/max) = 8.788 | 8.857 | 8.926 Mbytes
   Step          Temp          E_pair         E_mol          TotEng         Press     
     18149   198.33803     -28126.203      0             -27863.114     -3850.8926    
     18200   197.3554      -28125.57       0             -27863.784     -4035.8186    
     18249   198.08214     -28126.235      0             -27863.485     -3995.6679    
Loop time of 0.264443 on 8 procs for 100 steps with 10522 atoms

Performance: 32.672 ns/day, 0.735 hours/ns, 378.153 timesteps/s, 3.979 Matom-step/s
98.5% CPU use with 8 MPI tasks x 1 OpenMP threads

MPI task timing breakdown:
Section |  min time  |  avg time  |  max time  |%varavg| %total
---------------------------------------------------------------
Pair    | 0.00015733 | 0.10575    | 0.21439    |  32.5 | 39.99
Neigh   | 0.00055474 | 0.012792   | 0.025472   |  10.7 |  4.84
Comm    | 0.014112   | 0.12834    | 0.24305    |  30.9 | 48.53
Output  | 6.6264e-05 | 8.0461e-05 | 0.0001501  |   0.0 |  0.03
Modify  | 0.0087258  | 0.015499   | 0.026521   |   5.7 |  5.86
Other   |            | 0.001978   |            |       |  0.75

Nlocal:        1315.25 ave        2645 max           0 min
Histogram: 4 0 0 0 0 0 0 0 0 4
Nghost:        1142.88 ave        2153 max         139 min
Histogram: 4 0 0 0 0 0 0 0 0 4
Neighs:              0 ave           0 max           0 min
Histogram: 8 0 0 0 0 0 0 0 0 0

Total # of neighbors = 0
Ave neighs/atom = 0
Neighbor list builds = 8
Dangerous builds = 0

unfix forcetip

next i
jump SELF loop_load

variable f equal ${f}+${fincr}
variable f equal 0.82+${fincr}
variable f equal 0.82+0.01

# Set force variable

variable Fatom equal -v_f/(count(tip_fix)*1.602176565)
fix forcetip tip_fix aveforce 0.0 0.0 ${Fatom}
fix forcetip tip_fix aveforce 0.0 0.0 -0.00198484779881454
run 100
WARNING: One or more atoms are time integrated more than once (src/modify.cpp:296)
Per MPI rank memory allocation (min/avg/max) = 8.788 | 8.857 | 8.926 Mbytes
   Step          Temp          E_pair         E_mol          TotEng         Press     
     18249   198.08214     -28126.235      0             -27863.485     -3951.5803    
     18300   196.95672     -28124.65       0             -27863.393     -3697.8334    
     18349   199.76502     -28126.671      0             -27861.689     -3774.815     
Loop time of 0.265172 on 8 procs for 100 steps with 10522 atoms

Performance: 32.583 ns/day, 0.737 hours/ns, 377.113 timesteps/s, 3.968 Matom-step/s
99.1% CPU use with 8 MPI tasks x 1 OpenMP threads

MPI task timing breakdown:
Section |  min time  |  avg time  |  max time  |%varavg| %total
---------------------------------------------------------------
Pair    | 0.00016796 | 0.1053     | 0.2149     |  32.4 | 39.71
Neigh   | 0.0010215  | 0.013273   | 0.025945   |  10.5 |  5.01
Comm    | 0.01362    | 0.12872    | 0.24374    |  30.7 | 48.54
Output  | 8.1132e-05 | 9.7554e-05 | 0.00017213 |   0.0 |  0.04
Modify  | 0.0088299  | 0.015699   | 0.027951   |   5.8 |  5.92
Other   |            | 0.002084   |            |       |  0.79

Nlocal:        1315.25 ave        2642 max           0 min
Histogram: 4 0 0 0 0 0 0 0 0 4
Nghost:        1140.38 ave        2149 max         139 min
Histogram: 4 0 0 0 0 0 0 0 0 4
Neighs:              0 ave           0 max           0 min
Histogram: 8 0 0 0 0 0 0 0 0 0

Total # of neighbors = 0
Ave neighs/atom = 0
Neighbor list builds = 8
Dangerous builds = 0

unfix forcetip

next i
jump SELF loop_load

variable f equal ${f}+${fincr}
variable f equal 0.83+${fincr}
variable f equal 0.83+0.01

# Set force variable

variable Fatom equal -v_f/(count(tip_fix)*1.602176565)
fix forcetip tip_fix aveforce 0.0 0.0 ${Fatom}
fix forcetip tip_fix aveforce 0.0 0.0 -0.00200876162771592
run 100
WARNING: One or more atoms are time integrated more than once (src/modify.cpp:296)
Per MPI rank memory allocation (min/avg/max) = 8.788 | 8.857 | 8.926 Mbytes
   Step          Temp          E_pair         E_mol          TotEng         Press     
     18349   199.76502     -28126.671      0             -27861.689     -3690.1971    
     18400   198.39058     -28124.694      0             -27861.536     -3906.6767    
     18449   200.63206     -28128.084      0             -27861.952     -3843.3139    
Loop time of 0.252412 on 8 procs for 100 steps with 10522 atoms

Performance: 34.230 ns/day, 0.701 hours/ns, 396.178 timesteps/s, 4.169 Matom-step/s
99.4% CPU use with 8 MPI tasks x 1 OpenMP threads

MPI task timing breakdown:
Section |  min time  |  avg time  |  max time  |%varavg| %total
---------------------------------------------------------------
Pair    | 0.00014197 | 0.10216    | 0.20829    |  31.9 | 40.47
Neigh   | 0.00052772 | 0.012317   | 0.024534   |  10.6 |  4.88
Comm    | 0.0094253  | 0.12269    | 0.23586    |  31.1 | 48.61
Output  | 0.00011651 | 0.00014151 | 0.00028791 |   0.0 |  0.06
Modify  | 0.0084128  | 0.013149   | 0.024932   |   4.9 |  5.21
Other   |            | 0.001959   |            |       |  0.78

Nlocal:        1315.25 ave        2643 max           0 min
Histogram: 4 0 0 0 0 0 0 0 0 4
Nghost:        1140.62 ave        2148 max         139 min
Histogram: 4 0 0 0 0 0 0 0 0 4
Neighs:              0 ave           0 max           0 min
Histogram: 8 0 0 0 0 0 0 0 0 0

Total # of neighbors = 0
Ave neighs/atom = 0
Neighbor list builds = 8
Dangerous builds = 0

unfix forcetip

next i
jump SELF loop_load

variable f equal ${f}+${fincr}
variable f equal 0.84+${fincr}
variable f equal 0.84+0.01

# Set force variable

variable Fatom equal -v_f/(count(tip_fix)*1.602176565)
fix forcetip tip_fix aveforce 0.0 0.0 ${Fatom}
fix forcetip tip_fix aveforce 0.0 0.0 -0.0020326754566173
run 100
WARNING: One or more atoms are time integrated more than once (src/modify.cpp:296)
Per MPI rank memory allocation (min/avg/max) = 8.788 | 8.857 | 8.926 Mbytes
   Step          Temp          E_pair         E_mol          TotEng         Press     
     18449   200.63206     -28128.084      0             -27861.952     -3809.1586    
     18500   197.69509     -28124.649      0             -27862.412     -3728.0141    
     18549   196.45415     -28122.307      0             -27861.717     -3734.3416    
Loop time of 0.256201 on 8 procs for 100 steps with 10522 atoms

Performance: 33.724 ns/day, 0.712 hours/ns, 390.319 timesteps/s, 4.107 Matom-step/s
99.4% CPU use with 8 MPI tasks x 1 OpenMP threads

MPI task timing breakdown:
Section |  min time  |  avg time  |  max time  |%varavg| %total
---------------------------------------------------------------
Pair    | 9.5975e-05 | 0.10197    | 0.20676    |  31.9 | 39.80
Neigh   | 0.00078475 | 0.013457   | 0.026993   |  10.8 |  5.25
Comm    | 0.012823   | 0.1246     | 0.23618    |  30.7 | 48.63
Output  | 7.3829e-05 | 8.8537e-05 | 0.00016819 |   0.0 |  0.03
Modify  | 0.0082569  | 0.014188   | 0.028405   |   5.7 |  5.54
Other   |            | 0.001899   |            |       |  0.74

Nlocal:        1315.25 ave        2641 max           0 min
Histogram: 4 0 0 0 0 0 0 0 0 4
Nghost:        1140.38 ave        2144 max         139 min
Histogram: 4 0 0 0 0 0 0 0 0 4
Neighs:              0 ave           0 max           0 min
Histogram: 8 0 0 0 0 0 0 0 0 0

Total # of neighbors = 0
Ave neighs/atom = 0
Neighbor list builds = 8
Dangerous builds = 0

unfix forcetip

next i
jump SELF loop_load

variable f equal ${f}+${fincr}
variable f equal 0.85+${fincr}
variable f equal 0.85+0.01

# Set force variable

variable Fatom equal -v_f/(count(tip_fix)*1.602176565)
fix forcetip tip_fix aveforce 0.0 0.0 ${Fatom}
fix forcetip tip_fix aveforce 0.0 0.0 -0.00205658928551868
run 100
WARNING: One or more atoms are time integrated more than once (src/modify.cpp:296)
Per MPI rank memory allocation (min/avg/max) = 8.788 | 8.857 | 8.926 Mbytes
   Step          Temp          E_pair         E_mol          TotEng         Press     
     18549   196.45415     -28122.307      0             -27861.717     -3714.9834    
     18600   200.15851     -28127.038      0             -27861.534     -3931.5814    
     18649   195.34574     -28122.177      0             -27863.057     -3691.2113    
Loop time of 0.262646 on 8 procs for 100 steps with 10522 atoms

Performance: 32.896 ns/day, 0.730 hours/ns, 380.740 timesteps/s, 4.006 Matom-step/s
99.5% CPU use with 8 MPI tasks x 1 OpenMP threads

MPI task timing breakdown:
Section |  min time  |  avg time  |  max time  |%varavg| %total
---------------------------------------------------------------
Pair    | 0.00013746 | 0.10403    | 0.21248    |  32.2 | 39.61
Neigh   | 0.00095373 | 0.013247   | 0.026322   |  10.6 |  5.04
Comm    | 0.013613   | 0.12756    | 0.24155    |  30.5 | 48.57
Output  | 6.967e-05  | 8.4941e-05 | 0.00015551 |   0.0 |  0.03
Modify  | 0.0086842  | 0.015643   | 0.032979   |   6.5 |  5.96
Other   |            | 0.002087   |            |       |  0.79

Nlocal:        1315.25 ave        2640 max           0 min
Histogram: 4 0 0 0 0 0 0 0 0 4
Nghost:        1139.25 ave        2149 max         138 min
Histogram: 4 0 0 0 0 0 0 0 0 4
Neighs:              0 ave           0 max           0 min
Histogram: 8 0 0 0 0 0 0 0 0 0

Total # of neighbors = 0
Ave neighs/atom = 0
Neighbor list builds = 8
Dangerous builds = 0

unfix forcetip

next i
jump SELF loop_load

variable f equal ${f}+${fincr}
variable f equal 0.86+${fincr}
variable f equal 0.86+0.01

# Set force variable

variable Fatom equal -v_f/(count(tip_fix)*1.602176565)
fix forcetip tip_fix aveforce 0.0 0.0 ${Fatom}
fix forcetip tip_fix aveforce 0.0 0.0 -0.00208050311442006
run 100
WARNING: One or more atoms are time integrated more than once (src/modify.cpp:296)
Per MPI rank memory allocation (min/avg/max) = 8.788 | 8.857 | 8.926 Mbytes
   Step          Temp          E_pair         E_mol          TotEng         Press     
     18649   195.34574     -28122.177      0             -27863.057     -3653.1877    
     18700   199.16073     -28126.372      0             -27862.192     -4019.4744    
     18749   201.42001     -28129.328      0             -27862.151     -3850.7236    
Loop time of 0.267882 on 8 procs for 100 steps with 10522 atoms

Performance: 32.253 ns/day, 0.744 hours/ns, 373.299 timesteps/s, 3.928 Matom-step/s
99.1% CPU use with 8 MPI tasks x 1 OpenMP threads

MPI task timing breakdown:
Section |  min time  |  avg time  |  max time  |%varavg| %total
---------------------------------------------------------------
Pair    | 0.00015639 | 0.10622    | 0.21834    |  32.5 | 39.65
Neigh   | 0.00086205 | 0.012981   | 0.025765   |  10.5 |  4.85
Comm    | 0.013185   | 0.12925    | 0.24352    |  30.6 | 48.25
Output  | 0.00011605 | 0.00014201 | 0.00028425 |   0.0 |  0.05
Modify  | 0.0090525  | 0.017059   | 0.031389   |   6.5 |  6.37
Other   |            | 0.00223    |            |       |  0.83

Nlocal:        1315.25 ave        2640 max           0 min
Histogram: 4 0 0 0 0 0 0 0 0 4
Nghost:         1138.5 ave        2149 max         138 min
Histogram: 4 0 0 0 0 0 0 0 0 4
Neighs:              0 ave           0 max           0 min
Histogram: 8 0 0 0 0 0 0 0 0 0

Total # of neighbors = 0
Ave neighs/atom = 0
Neighbor list builds = 8
Dangerous builds = 0

unfix forcetip

next i
jump SELF loop_load

variable f equal ${f}+${fincr}
variable f equal 0.87+${fincr}
variable f equal 0.87+0.01

# Set force variable

variable Fatom equal -v_f/(count(tip_fix)*1.602176565)
fix forcetip tip_fix aveforce 0.0 0.0 ${Fatom}
fix forcetip tip_fix aveforce 0.0 0.0 -0.00210441694332144
run 100
WARNING: One or more atoms are time integrated more than once (src/modify.cpp:296)
Per MPI rank memory allocation (min/avg/max) = 8.788 | 8.857 | 8.926 Mbytes
   Step          Temp          E_pair         E_mol          TotEng         Press     
     18749   201.42001     -28129.328      0             -27862.151     -3799.4788    
     18800   198.36328     -28124.796      0             -27861.673     -3741.4914    
     18849   199.92115     -28126.547      0             -27861.359     -3807.9639    
Loop time of 0.268717 on 8 procs for 100 steps with 10522 atoms

Performance: 32.153 ns/day, 0.746 hours/ns, 372.138 timesteps/s, 3.916 Matom-step/s
98.0% CPU use with 8 MPI tasks x 1 OpenMP threads

MPI task timing breakdown:
Section |  min time  |  avg time  |  max time  |%varavg| %total
---------------------------------------------------------------
Pair    | 0.00019756 | 0.10671    | 0.21766    |  32.6 | 39.71
Neigh   | 0.0011793  | 0.013072   | 0.025327   |  10.3 |  4.86
Comm    | 0.014529   | 0.13015    | 0.24586    |  30.7 | 48.43
Output  | 6.0704e-05 | 7.1553e-05 | 0.00012099 |   0.0 |  0.03
Modify  | 0.0091771  | 0.016486   | 0.033186   |   6.5 |  6.13
Other   |            | 0.002232   |            |       |  0.83

Nlocal:        1315.25 ave        2645 max           0 min
Histogram: 4 0 0 0 0 0 0 0 0 4
Nghost:        1138.12 ave        2152 max         138 min
Histogram: 4 0 0 0 0 0 0 0 0 4
Neighs:              0 ave           0 max           0 min
Histogram: 8 0 0 0 0 0 0 0 0 0

Total # of neighbors = 0
Ave neighs/atom = 0
Neighbor list builds = 8
Dangerous builds = 0

unfix forcetip

next i
jump SELF loop_load

variable f equal ${f}+${fincr}
variable f equal 0.88+${fincr}
variable f equal 0.88+0.01

# Set force variable

variable Fatom equal -v_f/(count(tip_fix)*1.602176565)
fix forcetip tip_fix aveforce 0.0 0.0 ${Fatom}
fix forcetip tip_fix aveforce 0.0 0.0 -0.00212833077222282
run 100
WARNING: One or more atoms are time integrated more than once (src/modify.cpp:296)
Per MPI rank memory allocation (min/avg/max) = 8.788 | 8.857 | 8.926 Mbytes
   Step          Temp          E_pair         E_mol          TotEng         Press     
     18849   199.92115     -28126.547      0             -27861.359     -3776.9843    
     18900   200.95283     -28128.974      0             -27862.417     -3587.6025    
     18949   195.76693     -28123.199      0             -27863.52      -3960.4153    
Loop time of 0.267802 on 8 procs for 100 steps with 10522 atoms

Performance: 32.263 ns/day, 0.744 hours/ns, 373.410 timesteps/s, 3.929 Matom-step/s
98.5% CPU use with 8 MPI tasks x 1 OpenMP threads

MPI task timing breakdown:
Section |  min time  |  avg time  |  max time  |%varavg| %total
---------------------------------------------------------------
Pair    | 0.00018004 | 0.10628    | 0.21657    |  32.5 | 39.69
Neigh   | 0.00077567 | 0.013018   | 0.025759   |  10.7 |  4.86
Comm    | 0.014607   | 0.12969    | 0.24543    |  30.7 | 48.43
Output  | 7.5251e-05 | 9.0204e-05 | 0.00016675 |   0.0 |  0.03
Modify  | 0.0089945  | 0.016545   | 0.027954   |   6.1 |  6.18
Other   |            | 0.002181   |            |       |  0.81

Nlocal:        1315.25 ave        2643 max           0 min
Histogram: 4 0 0 0 0 0 0 0 0 4
Nghost:        1136.12 ave        2142 max         138 min
Histogram: 4 0 0 0 0 0 0 0 0 4
Neighs:              0 ave           0 max           0 min
Histogram: 8 0 0 0 0 0 0 0 0 0

Total # of neighbors = 0
Ave neighs/atom = 0
Neighbor list builds = 8
Dangerous builds = 0

unfix forcetip

next i
jump SELF loop_load

variable f equal ${f}+${fincr}
variable f equal 0.89+${fincr}
variable f equal 0.89+0.01

# Set force variable

variable Fatom equal -v_f/(count(tip_fix)*1.602176565)
fix forcetip tip_fix aveforce 0.0 0.0 ${Fatom}
fix forcetip tip_fix aveforce 0.0 0.0 -0.0021522446011242
run 100
WARNING: One or more atoms are time integrated more than once (src/modify.cpp:296)
Per MPI rank memory allocation (min/avg/max) = 8.788 | 8.857 | 8.926 Mbytes
   Step          Temp          E_pair         E_mol          TotEng         Press     
     18949   195.76693     -28123.199      0             -27863.52      -3923.3612    
     19000   198.83379     -28127.692      0             -27863.945     -3875.2259    
     19049   197.02036     -28123.736      0             -27862.395     -3740.8211    
Loop time of 0.259735 on 8 procs for 100 steps with 10522 atoms

Performance: 33.265 ns/day, 0.721 hours/ns, 385.008 timesteps/s, 4.051 Matom-step/s
98.9% CPU use with 8 MPI tasks x 1 OpenMP threads

MPI task timing breakdown:
Section |  min time  |  avg time  |  max time  |%varavg| %total
---------------------------------------------------------------
Pair    | 0.00013525 | 0.10418    | 0.21053    |  32.2 | 40.11
Neigh   | 0.00061526 | 0.012486   | 0.02527    |  10.6 |  4.81
Comm    | 0.012703   | 0.12521    | 0.23825    |  31.1 | 48.21
Output  | 0.0014558  | 0.0015674  | 0.0017014  |   0.2 |  0.60
Modify  | 0.008666   | 0.014158   | 0.025218   |   5.0 |  5.45
Other   |            | 0.002125   |            |       |  0.82

Nlocal:        1315.25 ave        2644 max           0 min
Histogram: 4 0 0 0 0 0 0 0 0 4
Nghost:        1113.62 ave        2145 max          96 min
Histogram: 4 0 0 0 0 0 0 0 0 4
Neighs:              0 ave           0 max           0 min
Histogram: 8 0 0 0 0 0 0 0 0 0

Total # of neighbors = 0
Ave neighs/atom = 0
Neighbor list builds = 8
Dangerous builds = 0

unfix forcetip

next i
jump SELF loop_load

variable f equal ${f}+${fincr}
variable f equal 0.9+${fincr}
variable f equal 0.9+0.01

# Set force variable

variable Fatom equal -v_f/(count(tip_fix)*1.602176565)
fix forcetip tip_fix aveforce 0.0 0.0 ${Fatom}
fix forcetip tip_fix aveforce 0.0 0.0 -0.00217615843002558
run 100
WARNING: One or more atoms are time integrated more than once (src/modify.cpp:296)
Per MPI rank memory allocation (min/avg/max) = 8.788 | 8.857 | 8.926 Mbytes
   Step          Temp          E_pair         E_mol          TotEng         Press     
     19049   197.02036     -28123.736      0             -27862.395     -3669.1802    
     19100   198.55177     -28125.367      0             -27861.995     -3970.0654    
     19149   197.91431     -28125.225      0             -27862.698     -3623.8389    
Loop time of 0.271933 on 8 procs for 100 steps with 10522 atoms

Performance: 31.773 ns/day, 0.755 hours/ns, 367.738 timesteps/s, 3.869 Matom-step/s
98.9% CPU use with 8 MPI tasks x 1 OpenMP threads

MPI task timing breakdown:
Section |  min time  |  avg time  |  max time  |%varavg| %total
---------------------------------------------------------------
Pair    | 0.00021031 | 0.10741    | 0.22132    |  32.7 | 39.50
Neigh   | 0.00090396 | 0.013217   | 0.026097   |  10.6 |  4.86
Comm    | 0.012978   | 0.13172    | 0.25077    |  30.7 | 48.44
Output  | 5.6326e-05 | 6.6667e-05 | 0.00011635 |   0.0 |  0.02
Modify  | 0.0095101  | 0.017216   | 0.03216    |   6.5 |  6.33
Other   |            | 0.002299   |            |       |  0.85

Nlocal:        1315.25 ave        2644 max           0 min
Histogram: 4 0 0 0 0 0 0 0 0 4
Nghost:        1112.62 ave        2147 max          96 min
Histogram: 4 0 0 0 0 0 0 0 0 4
Neighs:              0 ave           0 max           0 min
Histogram: 8 0 0 0 0 0 0 0 0 0

Total # of neighbors = 0
Ave neighs/atom = 0
Neighbor list builds = 8
Dangerous builds = 0

unfix forcetip

next i
jump SELF loop_load

variable f equal ${f}+${fincr}
variable f equal 0.91+${fincr}
variable f equal 0.91+0.01

# Set force variable

variable Fatom equal -v_f/(count(tip_fix)*1.602176565)
fix forcetip tip_fix aveforce 0.0 0.0 ${Fatom}
fix forcetip tip_fix aveforce 0.0 0.0 -0.00220007225892696
run 100
WARNING: One or more atoms are time integrated more than once (src/modify.cpp:296)
Per MPI rank memory allocation (min/avg/max) = 8.788 | 8.857 | 8.926 Mbytes
   Step          Temp          E_pair         E_mol          TotEng         Press     
     19149   197.91431     -28125.225      0             -27862.698     -3592.7051    
     19200   198.18066     -28124.456      0             -27861.576     -3581.8827    
     19249   199.3328      -28126.237      0             -27861.828     -3935.5325    
Loop time of 0.274008 on 8 procs for 100 steps with 10522 atoms

Performance: 31.532 ns/day, 0.761 hours/ns, 364.953 timesteps/s, 3.840 Matom-step/s
99.1% CPU use with 8 MPI tasks x 1 OpenMP threads

MPI task timing breakdown:
Section |  min time  |  avg time  |  max time  |%varavg| %total
---------------------------------------------------------------
Pair    | 0.00021007 | 0.10675    | 0.21894    |  32.6 | 38.96
Neigh   | 0.0011025  | 0.013442   | 0.026587   |  10.4 |  4.91
Comm    | 0.017105   | 0.13264    | 0.24823    |  29.9 | 48.41
Output  | 0.00010976 | 0.00013579 | 0.0002805  |   0.0 |  0.05
Modify  | 0.0093233  | 0.018768   | 0.039172   |   7.7 |  6.85
Other   |            | 0.00227    |            |       |  0.83

Nlocal:        1315.25 ave        2645 max           0 min
Histogram: 4 0 0 0 0 0 0 0 0 4
Nghost:        1112.62 ave        2138 max          96 min
Histogram: 4 0 0 0 0 0 0 0 0 4
Neighs:              0 ave           0 max           0 min
Histogram: 8 0 0 0 0 0 0 0 0 0

Total # of neighbors = 0
Ave neighs/atom = 0
Neighbor list builds = 8
Dangerous builds = 0

unfix forcetip

next i
jump SELF loop_load

variable f equal ${f}+${fincr}
variable f equal 0.92+${fincr}
variable f equal 0.92+0.01

# Set force variable

variable Fatom equal -v_f/(count(tip_fix)*1.602176565)
fix forcetip tip_fix aveforce 0.0 0.0 ${Fatom}
fix forcetip tip_fix aveforce 0.0 0.0 -0.00222398608782834
run 100
WARNING: One or more atoms are time integrated more than once (src/modify.cpp:296)
Per MPI rank memory allocation (min/avg/max) = 8.788 | 8.857 | 8.926 Mbytes
   Step          Temp          E_pair         E_mol          TotEng         Press     
     19249   199.3328      -28126.237      0             -27861.828     -3879.7427    
     19300   198.325       -28125.47       0             -27862.398     -3840.8603    
     19349   197.5541      -28124.63       0             -27862.581     -3894.9814    
Loop time of 0.273715 on 8 procs for 100 steps with 10522 atoms

Performance: 31.566 ns/day, 0.760 hours/ns, 365.344 timesteps/s, 3.844 Matom-step/s
99.1% CPU use with 8 MPI tasks x 1 OpenMP threads

MPI task timing breakdown:
Section |  min time  |  avg time  |  max time  |%varavg| %total
---------------------------------------------------------------
Pair    | 0.00019027 | 0.10766    | 0.22045    |  32.8 | 39.33
Neigh   | 0.0012855  | 0.013708   | 0.026905   |  10.5 |  5.01
Comm    | 0.014984   | 0.13254    | 0.25007    |  30.6 | 48.42
Output  | 7.7556e-05 | 9.3107e-05 | 0.00016587 |   0.0 |  0.03
Modify  | 0.0094801  | 0.017568   | 0.031882   |   6.5 |  6.42
Other   |            | 0.002147   |            |       |  0.78

Nlocal:        1315.25 ave        2643 max           0 min
Histogram: 4 0 0 0 0 0 0 0 0 4
Nghost:        1115.12 ave        2138 max          96 min
Histogram: 4 0 0 0 0 0 0 0 0 4
Neighs:              0 ave           0 max           0 min
Histogram: 8 0 0 0 0 0 0 0 0 0

Total # of neighbors = 0
Ave neighs/atom = 0
Neighbor list builds = 8
Dangerous builds = 0

unfix forcetip

next i
jump SELF loop_load

variable f equal ${f}+${fincr}
variable f equal 0.93+${fincr}
variable f equal 0.93+0.01

# Set force variable

variable Fatom equal -v_f/(count(tip_fix)*1.602176565)
fix forcetip tip_fix aveforce 0.0 0.0 ${Fatom}
fix forcetip tip_fix aveforce 0.0 0.0 -0.00224789991672972
run 100
WARNING: One or more atoms are time integrated more than once (src/modify.cpp:296)
Per MPI rank memory allocation (min/avg/max) = 8.788 | 8.857 | 8.926 Mbytes
   Step          Temp          E_pair         E_mol          TotEng         Press     
     19349   197.5541      -28124.63       0             -27862.581     -3825.7857    
     19400   198.53258     -28125.45       0             -27862.103     -3672.2532    
     19449   199.00273     -28126.095      0             -27862.124     -3886.9214    
Loop time of 0.264919 on 8 procs for 100 steps with 10522 atoms

Performance: 32.614 ns/day, 0.736 hours/ns, 377.473 timesteps/s, 3.972 Matom-step/s
99.3% CPU use with 8 MPI tasks x 1 OpenMP threads

MPI task timing breakdown:
Section |  min time  |  avg time  |  max time  |%varavg| %total
---------------------------------------------------------------
Pair    | 0.0001435  | 0.10491    | 0.21604    |  32.4 | 39.60
Neigh   | 0.0009662  | 0.013308   | 0.026551   |  10.7 |  5.02
Comm    | 0.012456   | 0.12856    | 0.24468    |  30.6 | 48.53
Output  | 9.1351e-05 | 0.00011399 | 0.00022628 |   0.0 |  0.04
Modify  | 0.0087983  | 0.015996   | 0.032453   |   6.6 |  6.04
Other   |            | 0.002036   |            |       |  0.77

Nlocal:        1315.25 ave        2643 max           0 min
Histogram: 4 0 0 0 0 0 0 0 0 4
Nghost:        1114.25 ave        2139 max          96 min
Histogram: 4 0 0 0 0 0 0 0 0 4
Neighs:              0 ave           0 max           0 min
Histogram: 8 0 0 0 0 0 0 0 0 0

Total # of neighbors = 0
Ave neighs/atom = 0
Neighbor list builds = 8
Dangerous builds = 0

unfix forcetip

next i
jump SELF loop_load

variable f equal ${f}+${fincr}
variable f equal 0.94+${fincr}
variable f equal 0.94+0.01

# Set force variable

variable Fatom equal -v_f/(count(tip_fix)*1.602176565)
fix forcetip tip_fix aveforce 0.0 0.0 ${Fatom}
fix forcetip tip_fix aveforce 0.0 0.0 -0.0022718137456311
run 100
WARNING: One or more atoms are time integrated more than once (src/modify.cpp:296)
Per MPI rank memory allocation (min/avg/max) = 8.788 | 8.857 | 8.926 Mbytes
   Step          Temp          E_pair         E_mol          TotEng         Press     
     19449   199.00273     -28126.095      0             -27862.124     -3885.3929    
     19500   199.79645     -28125.631      0             -27860.608     -3740.5718    
     19549   197.42308     -28123.044      0             -27861.168     -4174.669     
Loop time of 0.278483 on 8 procs for 100 steps with 10522 atoms

Performance: 31.025 ns/day, 0.774 hours/ns, 359.088 timesteps/s, 3.778 Matom-step/s
98.8% CPU use with 8 MPI tasks x 1 OpenMP threads

MPI task timing breakdown:
Section |  min time  |  avg time  |  max time  |%varavg| %total
---------------------------------------------------------------
Pair    | 0.00018333 | 0.10916    | 0.22377    |  33.0 | 39.20
Neigh   | 0.00083943 | 0.013438   | 0.026749   |  10.8 |  4.83
Comm    | 0.015777   | 0.13476    | 0.25377    |  30.7 | 48.39
Output  | 6.4351e-05 | 7.7487e-05 | 0.00013677 |   0.0 |  0.03
Modify  | 0.010054   | 0.018633   | 0.034878   |   6.8 |  6.69
Other   |            | 0.002415   |            |       |  0.87

Nlocal:        1315.25 ave        2644 max           0 min
Histogram: 4 0 0 0 0 0 0 0 0 4
Nghost:        1111.88 ave        2139 max          96 min
Histogram: 4 0 0 0 0 0 0 0 0 4
Neighs:              0 ave           0 max           0 min
Histogram: 8 0 0 0 0 0 0 0 0 0

Total # of neighbors = 0
Ave neighs/atom = 0
Neighbor list builds = 8
Dangerous builds = 0

unfix forcetip

next i
jump SELF loop_load

variable f equal ${f}+${fincr}
variable f equal 0.95+${fincr}
variable f equal 0.95+0.01

# Set force variable

variable Fatom equal -v_f/(count(tip_fix)*1.602176565)
fix forcetip tip_fix aveforce 0.0 0.0 ${Fatom}
fix forcetip tip_fix aveforce 0.0 0.0 -0.00229572757453248
run 100
WARNING: One or more atoms are time integrated more than once (src/modify.cpp:296)
Per MPI rank memory allocation (min/avg/max) = 8.788 | 8.857 | 8.926 Mbytes
   Step          Temp          E_pair         E_mol          TotEng         Press     
     19549   197.42308     -28123.044      0             -27861.168     -3990.8594    
     19600   201.02088     -28128.6        0             -27861.953     -3934.7427    
     19649   199.57794     -28125.559      0             -27860.825     -3604.4014    
Loop time of 0.262085 on 8 procs for 100 steps with 10522 atoms

Performance: 32.966 ns/day, 0.728 hours/ns, 381.555 timesteps/s, 4.015 Matom-step/s
99.4% CPU use with 8 MPI tasks x 1 OpenMP threads

MPI task timing breakdown:
Section |  min time  |  avg time  |  max time  |%varavg| %total
---------------------------------------------------------------
Pair    | 0.0001172  | 0.1049     | 0.21507    |  32.4 | 40.03
Neigh   | 0.00086508 | 0.012744   | 0.024883   |  10.5 |  4.86
Comm    | 0.01189    | 0.1273     | 0.24264    |  30.8 | 48.57
Output  | 7.8889e-05 | 0.00010167 | 0.00021307 |   0.0 |  0.04
Modify  | 0.0086231  | 0.014952   | 0.027293   |   5.7 |  5.71
Other   |            | 0.002089   |            |       |  0.80

Nlocal:        1315.25 ave        2642 max           0 min
Histogram: 4 0 0 0 0 0 0 0 0 4
Nghost:        1111.75 ave        2133 max          96 min
Histogram: 4 0 0 0 0 0 0 0 0 4
Neighs:              0 ave           0 max           0 min
Histogram: 8 0 0 0 0 0 0 0 0 0

Total # of neighbors = 0
Ave neighs/atom = 0
Neighbor list builds = 8
Dangerous builds = 0

unfix forcetip

next i
jump SELF loop_load

variable f equal ${f}+${fincr}
variable f equal 0.96+${fincr}
variable f equal 0.96+0.01

# Set force variable

variable Fatom equal -v_f/(count(tip_fix)*1.602176565)
fix forcetip tip_fix aveforce 0.0 0.0 ${Fatom}
fix forcetip tip_fix aveforce 0.0 0.0 -0.00231964140343386
run 100
WARNING: One or more atoms are time integrated more than once (src/modify.cpp:296)
Per MPI rank memory allocation (min/avg/max) = 8.788 | 8.857 | 8.926 Mbytes
   Step          Temp          E_pair         E_mol          TotEng         Press     
     19649   199.57794     -28125.559      0             -27860.825     -3643.9323    
     19700   200.52418     -28127.793      0             -27861.805     -3686.4592    
     19749   201.06941     -28127.79       0             -27861.078     -3829.0222    
Loop time of 0.273294 on 8 procs for 100 steps with 10522 atoms

Performance: 31.614 ns/day, 0.759 hours/ns, 365.906 timesteps/s, 3.850 Matom-step/s
99.5% CPU use with 8 MPI tasks x 1 OpenMP threads

MPI task timing breakdown:
Section |  min time  |  avg time  |  max time  |%varavg| %total
---------------------------------------------------------------
Pair    | 0.0001819  | 0.10755    | 0.22054    |  32.7 | 39.35
Neigh   | 0.0010954  | 0.01353    | 0.026357   |  10.6 |  4.95
Comm    | 0.014949   | 0.13241    | 0.24999    |  30.6 | 48.45
Output  | 7.2436e-05 | 8.4793e-05 | 0.00014731 |   0.0 |  0.03
Modify  | 0.0094084  | 0.017437   | 0.035174   |   6.8 |  6.38
Other   |            | 0.002284   |            |       |  0.84

Nlocal:        1315.25 ave        2643 max           0 min
Histogram: 4 0 0 0 0 0 0 0 0 4
Nghost:        1087.88 ave        2138 max          46 min
Histogram: 4 0 0 0 0 0 0 0 0 4
Neighs:              0 ave           0 max           0 min
Histogram: 8 0 0 0 0 0 0 0 0 0

Total # of neighbors = 0
Ave neighs/atom = 0
Neighbor list builds = 8
Dangerous builds = 0

unfix forcetip

next i
jump SELF loop_load

variable f equal ${f}+${fincr}
variable f equal 0.97+${fincr}
variable f equal 0.97+0.01

# Set force variable

variable Fatom equal -v_f/(count(tip_fix)*1.602176565)
fix forcetip tip_fix aveforce 0.0 0.0 ${Fatom}
fix forcetip tip_fix aveforce 0.0 0.0 -0.00234355523233524
run 100
WARNING: One or more atoms are time integrated more than once (src/modify.cpp:296)
Per MPI rank memory allocation (min/avg/max) = 8.788 | 8.857 | 8.926 Mbytes
   Step          Temp          E_pair         E_mol          TotEng         Press     
     19749   201.06941     -28127.79       0             -27861.078     -3821.1981    
     19800   199.47419     -28124.78       0             -27860.184     -3983.6804    
     19849   198.26483     -28122.924      0             -27859.932     -3969.3769    
Loop time of 0.276584 on 8 procs for 100 steps with 10522 atoms

Performance: 31.238 ns/day, 0.768 hours/ns, 361.554 timesteps/s, 3.804 Matom-step/s
98.9% CPU use with 8 MPI tasks x 1 OpenMP threads

MPI task timing breakdown:
Section |  min time  |  avg time  |  max time  |%varavg| %total
---------------------------------------------------------------
Pair    | 0.00018423 | 0.10852    | 0.21814    |  32.9 | 39.24
Neigh   | 0.00098292 | 0.01294    | 0.025271   |  10.5 |  4.68
Comm    | 0.021768   | 0.13416    | 0.24672    |  30.2 | 48.51
Output  | 6.7126e-05 | 8.0818e-05 | 0.00014733 |   0.0 |  0.03
Modify  | 0.0092958  | 0.018558   | 0.029174   |   6.8 |  6.71
Other   |            | 0.002327   |            |       |  0.84

Nlocal:        1315.25 ave        2643 max           0 min
Histogram: 4 0 0 0 0 0 0 0 0 4
Nghost:           1090 ave        2138 max          46 min
Histogram: 4 0 0 0 0 0 0 0 0 4
Neighs:              0 ave           0 max           0 min
Histogram: 8 0 0 0 0 0 0 0 0 0

Total # of neighbors = 0
Ave neighs/atom = 0
Neighbor list builds = 8
Dangerous builds = 0

unfix forcetip

next i
jump SELF loop_load

variable f equal ${f}+${fincr}
variable f equal 0.98+${fincr}
variable f equal 0.98+0.01

# Set force variable

variable Fatom equal -v_f/(count(tip_fix)*1.602176565)
fix forcetip tip_fix aveforce 0.0 0.0 ${Fatom}
fix forcetip tip_fix aveforce 0.0 0.0 -0.00236746906123662
run 100
Per MPI rank memory allocation (min/avg/max) = 8.788 | 8.857 | 8.926 Mbytes
   Step          Temp          E_pair         E_mol          TotEng         Press     
WARNING: Too many warnings: 101 vs 100. All future warnings will be suppressed (src/thermo.cpp:478)
     19849   198.26483     -28122.924      0             -27859.932     -3915.9675    
     19900   199.62969     -28126.47       0             -27861.668     -3567.7017    
     19949   201.55393     -28128.023      0             -27860.669     -3856.1727    
Loop time of 0.258736 on 8 procs for 100 steps with 10522 atoms

Performance: 33.393 ns/day, 0.719 hours/ns, 386.495 timesteps/s, 4.067 Matom-step/s
99.4% CPU use with 8 MPI tasks x 1 OpenMP threads

MPI task timing breakdown:
Section |  min time  |  avg time  |  max time  |%varavg| %total
---------------------------------------------------------------
Pair    | 9.4271e-05 | 0.10413    | 0.21291    |  32.2 | 40.25
Neigh   | 0.00076014 | 0.012701   | 0.025385   |  10.5 |  4.91
Comm    | 0.010234   | 0.12564    | 0.24109    |  31.0 | 48.56
Output  | 7.6584e-05 | 9.1396e-05 | 0.00016804 |   0.0 |  0.04
Modify  | 0.0085227  | 0.014204   | 0.024667   |   5.2 |  5.49
Other   |            | 0.001967   |            |       |  0.76

Nlocal:        1315.25 ave        2643 max           0 min
Histogram: 4 0 0 0 0 0 0 0 0 4
Nghost:        1085.75 ave        2129 max          46 min
Histogram: 4 0 0 0 0 0 0 0 0 4
Neighs:              0 ave           0 max           0 min
Histogram: 8 0 0 0 0 0 0 0 0 0

Total # of neighbors = 0
Ave neighs/atom = 0
Neighbor list builds = 8
Dangerous builds = 0

unfix forcetip

next i
jump SELF loop_load

variable f equal ${f}+${fincr}
variable f equal 0.99+${fincr}
variable f equal 0.99+0.01

# Set force variable

variable Fatom equal -v_f/(count(tip_fix)*1.602176565)
fix forcetip tip_fix aveforce 0.0 0.0 ${Fatom}
fix forcetip tip_fix aveforce 0.0 0.0 -0.002391382890138
run 100
Per MPI rank memory allocation (min/avg/max) = 8.788 | 8.857 | 8.926 Mbytes
   Step          Temp          E_pair         E_mol          TotEng         Press     
     19949   201.55393     -28128.023      0             -27860.669     -3809.9425    
     20000   198.76489     -28125.778      0             -27862.123     -3682.5239    
     20049   200.02023     -28128.155      0             -27862.834     -3786.1632    
Loop time of 0.253278 on 8 procs for 100 steps with 10522 atoms

Performance: 34.113 ns/day, 0.704 hours/ns, 394.823 timesteps/s, 4.154 Matom-step/s
99.4% CPU use with 8 MPI tasks x 1 OpenMP threads

MPI task timing breakdown:
Section |  min time  |  avg time  |  max time  |%varavg| %total
---------------------------------------------------------------
Pair    | 9.398e-05  | 0.10337    | 0.21077    |  32.1 | 40.81
Neigh   | 0.00067152 | 0.011273   | 0.022391   |   9.9 |  4.45
Comm    | 0.008692   | 0.12232    | 0.23591    |  31.2 | 48.30
Output  | 0.0015099  | 0.0016554  | 0.0018122  |   0.3 |  0.65
Modify  | 0.008199   | 0.012727   | 0.02175    |   4.5 |  5.02
Other   |            | 0.001927   |            |       |  0.76

Nlocal:        1315.25 ave        2645 max           0 min
Histogram: 4 0 0 0 0 0 0 0 0 4
Nghost:        1088.38 ave        2138 max          46 min
Histogram: 4 0 0 0 0 0 0 0 0 4
Neighs:              0 ave           0 max           0 min
Histogram: 8 0 0 0 0 0 0 0 0 0

Total # of neighbors = 0
Ave neighs/atom = 0
Neighbor list builds = 7
Dangerous builds = 0

unfix forcetip

next i
jump SELF loop_load

variable f equal ${f}+${fincr}
variable f equal 1+${fincr}
variable f equal 1+0.01

# Set force variable

variable Fatom equal -v_f/(count(tip_fix)*1.602176565)
fix forcetip tip_fix aveforce 0.0 0.0 ${Fatom}
fix forcetip tip_fix aveforce 0.0 0.0 -0.00241529671903938
run 100
Per MPI rank memory allocation (min/avg/max) = 8.788 | 8.857 | 8.926 Mbytes
   Step          Temp          E_pair         E_mol          TotEng         Press     
     20049   200.02023     -28128.155      0             -27862.834     -3727.3966    
     20100   201.06804     -28129.068      0             -27862.358     -4151.6251    
     20149   199.86618     -28127.45       0             -27862.334     -3731.6417    
Loop time of 0.25884 on 8 procs for 100 steps with 10522 atoms

Performance: 33.380 ns/day, 0.719 hours/ns, 386.339 timesteps/s, 4.065 Matom-step/s
99.6% CPU use with 8 MPI tasks x 1 OpenMP threads

MPI task timing breakdown:
Section |  min time  |  avg time  |  max time  |%varavg| %total
---------------------------------------------------------------
Pair    | 0.00013818 | 0.1037     | 0.21005    |  32.2 | 40.06
Neigh   | 0.00083107 | 0.012722   | 0.025236   |  10.5 |  4.92
Comm    | 0.013554   | 0.12574    | 0.23796    |  30.7 | 48.58
Output  | 6.7697e-05 | 8.0755e-05 | 0.00014253 |   0.0 |  0.03
Modify  | 0.0085034  | 0.01474    | 0.025509   |   5.4 |  5.69
Other   |            | 0.001855   |            |       |  0.72

Nlocal:        1315.25 ave        2643 max           0 min
Histogram: 4 0 0 0 0 0 0 0 0 4
Nghost:        1086.25 ave        2137 max          46 min
Histogram: 4 0 0 0 0 0 0 0 0 4
Neighs:              0 ave           0 max           0 min
Histogram: 8 0 0 0 0 0 0 0 0 0

Total # of neighbors = 0
Ave neighs/atom = 0
Neighbor list builds = 8
Dangerous builds = 0

unfix forcetip

next i
jump SELF loop_load

variable f equal ${f}+${fincr}
variable f equal 1.01+${fincr}
variable f equal 1.01+0.01

# Set force variable

variable Fatom equal -v_f/(count(tip_fix)*1.602176565)
fix forcetip tip_fix aveforce 0.0 0.0 ${Fatom}
fix forcetip tip_fix aveforce 0.0 0.0 -0.00243921054794076
run 100
Per MPI rank memory allocation (min/avg/max) = 8.788 | 8.857 | 8.926 Mbytes
   Step          Temp          E_pair         E_mol          TotEng         Press     
     20149   199.86618     -28127.45       0             -27862.334     -3728.1758    
     20200   200.35164     -28125.699      0             -27859.939     -3912.6892    
     20249   200.23956     -28125.268      0             -27859.656     -3860.857     
Loop time of 0.260487 on 8 procs for 100 steps with 10522 atoms

Performance: 33.169 ns/day, 0.724 hours/ns, 383.896 timesteps/s, 4.039 Matom-step/s
99.2% CPU use with 8 MPI tasks x 1 OpenMP threads

MPI task timing breakdown:
Section |  min time  |  avg time  |  max time  |%varavg| %total
---------------------------------------------------------------
Pair    | 0.00013239 | 0.10423    | 0.21267    |  32.2 | 40.01
Neigh   | 0.00096753 | 0.012885   | 0.025459   |  10.4 |  4.95
Comm    | 0.012302   | 0.12651    | 0.24088    |  30.7 | 48.56
Output  | 7.6905e-05 | 9.0499e-05 | 0.00016449 |   0.0 |  0.03
Modify  | 0.0084234  | 0.014883   | 0.027343   |   5.8 |  5.71
Other   |            | 0.001895   |            |       |  0.73

Nlocal:        1315.25 ave        2642 max           0 min
Histogram: 4 0 0 0 0 0 0 0 0 4
Nghost:        1086.38 ave        2133 max          46 min
Histogram: 4 0 0 0 0 0 0 0 0 4
Neighs:              0 ave           0 max           0 min
Histogram: 8 0 0 0 0 0 0 0 0 0

Total # of neighbors = 0
Ave neighs/atom = 0
Neighbor list builds = 8
Dangerous builds = 0

unfix forcetip

next i
jump SELF loop_load

variable f equal ${f}+${fincr}
variable f equal 1.02+${fincr}
variable f equal 1.02+0.01

# Set force variable

variable Fatom equal -v_f/(count(tip_fix)*1.602176565)
fix forcetip tip_fix aveforce 0.0 0.0 ${Fatom}
fix forcetip tip_fix aveforce 0.0 0.0 -0.00246312437684214
run 100
Per MPI rank memory allocation (min/avg/max) = 8.788 | 8.857 | 8.926 Mbytes
   Step          Temp          E_pair         E_mol          TotEng         Press     
     20249   200.23956     -28125.268      0             -27859.656     -3777.2616    
     20300   201.56277     -28125.367      0             -27858.001     -3741.2453    
     20349   203.71202     -28128.296      0             -27858.079     -3731.9209    
Loop time of 0.26325 on 8 procs for 100 steps with 10522 atoms

Performance: 32.821 ns/day, 0.731 hours/ns, 379.867 timesteps/s, 3.997 Matom-step/s
99.7% CPU use with 8 MPI tasks x 1 OpenMP threads

MPI task timing breakdown:
Section |  min time  |  avg time  |  max time  |%varavg| %total
---------------------------------------------------------------
Pair    | 0.00010541 | 0.10451    | 0.21427    |  32.3 | 39.70
Neigh   | 0.00046973 | 0.012372   | 0.024803   |  10.6 |  4.70
Comm    | 0.013562   | 0.12775    | 0.24189    |  30.4 | 48.53
Output  | 7.5271e-05 | 9.132e-05  | 0.00017825 |   0.0 |  0.03
Modify  | 0.0092341  | 0.016484   | 0.029628   |   6.2 |  6.26
Other   |            | 0.002038   |            |       |  0.77

Nlocal:        1315.25 ave        2643 max           0 min
Histogram: 4 0 0 0 0 0 0 0 0 4
Nghost:           1086 ave        2127 max          46 min
Histogram: 4 0 0 0 0 0 0 0 0 4
Neighs:              0 ave           0 max           0 min
Histogram: 8 0 0 0 0 0 0 0 0 0

Total # of neighbors = 0
Ave neighs/atom = 0
Neighbor list builds = 8
Dangerous builds = 0

unfix forcetip

next i
jump SELF loop_load

variable f equal ${f}+${fincr}
variable f equal 1.03+${fincr}
variable f equal 1.03+0.01

# Set force variable

variable Fatom equal -v_f/(count(tip_fix)*1.602176565)
fix forcetip tip_fix aveforce 0.0 0.0 ${Fatom}
fix forcetip tip_fix aveforce 0.0 0.0 -0.00248703820574352
run 100
Per MPI rank memory allocation (min/avg/max) = 8.788 | 8.857 | 8.926 Mbytes
   Step          Temp          E_pair         E_mol          TotEng         Press     
     20349   203.71202     -28128.296      0             -27858.079     -3751.8493    
     20400   201.84632     -28126.273      0             -27858.53      -3732.5124    
     20449   201.13649     -28123.606      0             -27856.805     -4091.7811    
Loop time of 0.268855 on 8 procs for 100 steps with 10522 atoms

Performance: 32.136 ns/day, 0.747 hours/ns, 371.948 timesteps/s, 3.914 Matom-step/s
99.8% CPU use with 8 MPI tasks x 1 OpenMP threads

MPI task timing breakdown:
Section |  min time  |  avg time  |  max time  |%varavg| %total
---------------------------------------------------------------
Pair    | 0.00014264 | 0.1051     | 0.21402    |  32.4 | 39.09
Neigh   | 0.0008919  | 0.013776   | 0.026991   |  10.8 |  5.12
Comm    | 0.0011565  | 0.019052   | 0.025935   |   5.2 |  7.09
Output  | 7.6984e-05 | 9.4065e-05 | 0.00017546 |   0.0 |  0.03
Modify  | 0.0091007  | 0.12874    | 0.26379    |  33.4 | 47.88
Other   |            | 0.002092   |            |       |  0.78

Nlocal:        1315.25 ave        2644 max           0 min
Histogram: 4 0 0 0 0 0 0 0 0 4
Nghost:        1062.75 ave        2137 max           0 min
Histogram: 4 0 0 0 0 0 0 0 0 4
Neighs:              0 ave           0 max           0 min
Histogram: 8 0 0 0 0 0 0 0 0 0

Total # of neighbors = 0
Ave neighs/atom = 0
Neighbor list builds = 8
Dangerous builds = 0

unfix forcetip

next i
jump SELF loop_load

variable f equal ${f}+${fincr}
variable f equal 1.04+${fincr}
variable f equal 1.04+0.01

# Set force variable

variable Fatom equal -v_f/(count(tip_fix)*1.602176565)
fix forcetip tip_fix aveforce 0.0 0.0 ${Fatom}
fix forcetip tip_fix aveforce 0.0 0.0 -0.0025109520346449
run 100
Per MPI rank memory allocation (min/avg/max) = 8.788 | 8.857 | 8.926 Mbytes
   Step          Temp          E_pair         E_mol          TotEng         Press     
     20449   201.13649     -28123.606      0             -27856.805     -3905.0505    
     20500   203.47429     -28127.034      0             -27857.132     -3828.2873    
     20549   201.31034     -28123.287      0             -27856.255     -3793.0397    
Loop time of 0.275144 on 8 procs for 100 steps with 10522 atoms

Performance: 31.402 ns/day, 0.764 hours/ns, 363.446 timesteps/s, 3.824 Matom-step/s
99.6% CPU use with 8 MPI tasks x 1 OpenMP threads

MPI task timing breakdown:
Section |  min time  |  avg time  |  max time  |%varavg| %total
---------------------------------------------------------------
Pair    | 0.00016563 | 0.10753    | 0.2209     |  32.7 | 39.08
Neigh   | 0.00099824 | 0.014916   | 0.029574   |  11.3 |  5.42
Comm    | 0.00099393 | 0.010324   | 0.023924   |   9.7 |  3.75
Output  | 8.5872e-05 | 0.00010274 | 0.0001909  |   0.0 |  0.04
Modify  | 0.0097799  | 0.14001    | 0.27032    |  34.8 | 50.88
Other   |            | 0.002261   |            |       |  0.82

Nlocal:        1315.25 ave        2642 max           0 min
Histogram: 4 0 0 0 0 0 0 0 0 4
Nghost:         1062.5 ave        2134 max           0 min
Histogram: 4 0 0 0 0 0 0 0 0 4
Neighs:              0 ave           0 max           0 min
Histogram: 8 0 0 0 0 0 0 0 0 0

Total # of neighbors = 0
Ave neighs/atom = 0
Neighbor list builds = 9
Dangerous builds = 0

unfix forcetip

next i
jump SELF loop_load

variable f equal ${f}+${fincr}
variable f equal 1.05+${fincr}
variable f equal 1.05+0.01

# Set force variable

variable Fatom equal -v_f/(count(tip_fix)*1.602176565)
fix forcetip tip_fix aveforce 0.0 0.0 ${Fatom}
fix forcetip tip_fix aveforce 0.0 0.0 -0.00253486586354628
run 100
Per MPI rank memory allocation (min/avg/max) = 8.788 | 8.857 | 8.926 Mbytes
   Step          Temp          E_pair         E_mol          TotEng         Press     
     20549   201.31034     -28123.287      0             -27856.255     -3777.656     
     20600   202.9071      -28125.606      0             -27856.456     -3730.0639    
     20649   204.15637     -28128.643      0             -27857.836     -3674.1357    
Loop time of 0.261928 on 8 procs for 100 steps with 10522 atoms

Performance: 32.986 ns/day, 0.728 hours/ns, 381.784 timesteps/s, 4.017 Matom-step/s
99.8% CPU use with 8 MPI tasks x 1 OpenMP threads

MPI task timing breakdown:
Section |  min time  |  avg time  |  max time  |%varavg| %total
---------------------------------------------------------------
Pair    | 8.8652e-05 | 0.10543    | 0.21829    |  32.4 | 40.25
Neigh   | 0.00084589 | 0.013051   | 0.025738   |  10.5 |  4.98
Comm    | 0.00088932 | 0.0082822  | 0.022359   |   9.1 |  3.16
Output  | 0.00011678 | 0.00014183 | 0.0002861  |   0.0 |  0.05
Modify  | 0.0086099  | 0.13304    | 0.25765    |  34.1 | 50.79
Other   |            | 0.001987   |            |       |  0.76

Nlocal:        1315.25 ave        2647 max           0 min
Histogram: 4 0 0 0 0 0 0 0 0 4
Nghost:           1061 ave        2135 max           0 min
Histogram: 4 0 0 0 0 0 0 0 0 4
Neighs:              0 ave           0 max           0 min
Histogram: 8 0 0 0 0 0 0 0 0 0

Total # of neighbors = 0
Ave neighs/atom = 0
Neighbor list builds = 8
Dangerous builds = 0

unfix forcetip

next i
jump SELF loop_load

variable f equal ${f}+${fincr}
variable f equal 1.06+${fincr}
variable f equal 1.06+0.01

# Set force variable

variable Fatom equal -v_f/(count(tip_fix)*1.602176565)
fix forcetip tip_fix aveforce 0.0 0.0 ${Fatom}
fix forcetip tip_fix aveforce 0.0 0.0 -0.00255877969244766
run 100
Per MPI rank memory allocation (min/avg/max) = 8.788 | 8.857 | 8.926 Mbytes
   Step          Temp          E_pair         E_mol          TotEng         Press     
     20649   204.15637     -28128.643      0             -27857.836     -3683.6155    
     20700   204.01714     -28127.589      0             -27856.967     -3812.59      
     20749   201.97027     -28126.197      0             -27858.29      -3781.3848    
Loop time of 0.262782 on 8 procs for 100 steps with 10522 atoms

Performance: 32.879 ns/day, 0.730 hours/ns, 380.543 timesteps/s, 4.004 Matom-step/s
99.4% CPU use with 8 MPI tasks x 1 OpenMP threads

MPI task timing breakdown:
Section |  min time  |  avg time  |  max time  |%varavg| %total
---------------------------------------------------------------
Pair    | 0.0001089  | 0.10491    | 0.21745    |  32.4 | 39.92
Neigh   | 0.00071691 | 0.012655   | 0.025066   |  10.6 |  4.82
Comm    | 0.00080975 | 0.0091894  | 0.025177   |   9.7 |  3.50
Output  | 0.00010873 | 0.00013383 | 0.00026026 |   0.0 |  0.05
Modify  | 0.0090406  | 0.13382    | 0.25861    |  34.1 | 50.92
Other   |            | 0.002077   |            |       |  0.79

Nlocal:        1315.25 ave        2645 max           0 min
Histogram: 4 0 0 0 0 0 0 0 0 4
Nghost:         1059.5 ave        2130 max           0 min
Histogram: 4 0 0 0 0 0 0 0 0 4
Neighs:              0 ave           0 max           0 min
Histogram: 8 0 0 0 0 0 0 0 0 0

Total # of neighbors = 0
Ave neighs/atom = 0
Neighbor list builds = 8
Dangerous builds = 0

unfix forcetip

next i
jump SELF loop_load

variable f equal ${f}+${fincr}
variable f equal 1.07+${fincr}
variable f equal 1.07+0.01

# Set force variable

variable Fatom equal -v_f/(count(tip_fix)*1.602176565)
fix forcetip tip_fix aveforce 0.0 0.0 ${Fatom}
fix forcetip tip_fix aveforce 0.0 0.0 -0.00258269352134904
run 100
Per MPI rank memory allocation (min/avg/max) = 8.788 | 8.857 | 8.926 Mbytes
   Step          Temp          E_pair         E_mol          TotEng         Press     
     20749   201.97027     -28126.197      0             -27858.29      -3808.5841    
     20800   203.37898     -28128.908      0             -27859.133     -4109.147     
     20849   205.18228     -28130.603      0             -27858.435     -3795.1284    
Loop time of 0.262269 on 8 procs for 100 steps with 10522 atoms

Performance: 32.943 ns/day, 0.729 hours/ns, 381.288 timesteps/s, 4.012 Matom-step/s
99.6% CPU use with 8 MPI tasks x 1 OpenMP threads

MPI task timing breakdown:
Section |  min time  |  avg time  |  max time  |%varavg| %total
---------------------------------------------------------------
Pair    | 0.00010969 | 0.10536    | 0.21485    |  32.4 | 40.17
Neigh   | 0.00063866 | 0.012856   | 0.02546    |  10.7 |  4.90
Comm    | 0.00076883 | 0.0084983  | 0.020142   |   8.9 |  3.24
Output  | 6.7206e-05 | 7.9096e-05 | 0.00014051 |   0.0 |  0.03
Modify  | 0.0088277  | 0.13358    | 0.2584     |  34.1 | 50.93
Other   |            | 0.001892   |            |       |  0.72

Nlocal:        1315.25 ave        2642 max           0 min
Histogram: 4 0 0 0 0 0 0 0 0 4
Nghost:        1059.38 ave        2128 max           0 min
Histogram: 4 0 0 0 0 0 0 0 0 4
Neighs:              0 ave           0 max           0 min
Histogram: 8 0 0 0 0 0 0 0 0 0

Total # of neighbors = 0
Ave neighs/atom = 0
Neighbor list builds = 8
Dangerous builds = 0

unfix forcetip

next i
jump SELF loop_load

variable f equal ${f}+${fincr}
variable f equal 1.08+${fincr}
variable f equal 1.08+0.01

# Set force variable

variable Fatom equal -v_f/(count(tip_fix)*1.602176565)
fix forcetip tip_fix aveforce 0.0 0.0 ${Fatom}
fix forcetip tip_fix aveforce 0.0 0.0 -0.00260660735025042
run 100
Per MPI rank memory allocation (min/avg/max) = 8.788 | 8.857 | 8.926 Mbytes
   Step          Temp          E_pair         E_mol          TotEng         Press     
     20849   205.18228     -28130.603      0             -27858.435     -3742.8503    
